col_delay col_page col_project col_requests col_size
0.0 Special:UserLogin en 1.0 1047123130.0
0.0 Main_Page en 1.0 8533729872.0
0.0 Calista_Flockhart en 1.0 2150679.0
0.0 Lip_Sync_Battle en 1.0 17720380.0
0.0 Special:UserLogin en 1.0 1047123130.0
0.0 Mother_Teresa en 1.0 17999585.0
0.0 Web_scraping en 1.0 28358326.0
0.0 One-Punch_Man en 1.0 14955107.0
0.0 Main_Page en 1.0 8533729872.0
0.0 Special:BlankPage en 1.0 942340592.0
0.0 Georgia_(country) en 1.0 16112517.0
0.0 Special:BlankPage en 1.0 942340592.0
0.0 Chichijima_incident en 1.0 156777745.0
0.0 Main_Page en 1.0 8533729872.0
0.0 Main_Page en 1.0 8533729872.0
0.0 Demat_account en 1.0 174061131.0
0.0 Kim_Jong-un en 1.0 55847144.0
0.0 Main_Page en 1.0 8533729872.0
0.0 Template:Syrian_Civil_War_detailed_map en 1.0 94140064.0
0.0 Main_Page en 1.0 8533729872.0
0.0 Main_Page en 1.0 8533729872.0
0.0 Pat_Harrington,_Jr. en 1.0 7221610.0
0.0 Special:Export en 1.0 10264333.0
0.0 Minecraft en 1.0 9645275.0
0.0 Special:BlankPage en 1.0 942340592.0
0.0 Main_Page en 1.0 8533729872.0
0.0 Serial_(podcast) en 1.0 5127892.0
0.0 Special:UserLogin en 1.0 1047123130.0
0.0 Quantico_(TV_series) en 1.0 20830380.0
0.0 Special:HideBanners en 1.0 0.0
0.0 Main_Page en 1.0 8533729872.0
0.0 Main_Page en 1.0 8533729872.0
0.0 Main_Page en 1.0 8533729872.0
0.0 Adam_Driver en 1.0 11421115.0
0.0 Main_Page en 1.0 8533729872.0
0.0 Special:BlankPage en 1.0 942340592.0
0.0 Special:UserLogin en 1.0 1047123130.0
0.0 Main_Page en 1.0 8533729872.0
0.0 Main_Page en 1.0 8533729872.0
0.0 List_of_Stradivarius_instruments en 1.0 7891718.0
0.0 Motorola en 1.0 7547927.0
0.0 Main_Page en 1.0 8533729872.0
0.0 Demat_account en 1.0 174061131.0
0.0 Special:BlankPage en 1.0 942340592.0
0.0 Quantum_mechanics en 1.0 10282338.0
0.0 Special:BlankPage en 1.0 942340592.0
0.0 Sanam_Re en 1.0 2117013.0
0.0 The_Big_Short_(film) en 1.0 17303600.0
0.0 Main_Page en 1.0 8533729872.0
0.0 Demat_account en 1.0 174061131.0
0.0 Main_Page en 1.0 8533729872.0
0.0 Main_Page en 1.0 8533729872.0
0.0 Java_(programming_language) en 1.0 9701848.0
0.0 Special:Preferences en 1.0 4091347.0
0.0 The_Revenant_(2015_film) en 1.0 59359352.0
0.0 Main_Page en 1.0 8533729872.0
0.0 Main_Page en 1.0 8533729872.0
0.0 Priyanka_Chopra en 1.0 37867289.0
0.0 Main_Page en 1.0 8533729872.0
0.0 Demat_account en 1.0 174061131.0
0.0 Special:UserLogin en 1.0 1047123130.0
0.0 Main_Page en 1.0 8533729872.0
0.0 Special:UserLogin en 1.0 1047123130.0
0.0 Main_Page en 1.0 8533729872.0
0.0 Main_Page en 1.0 8533729872.0
0.0 Making_a_Murderer en 1.0 33144160.0
0.0 Daisy_Ridley en 1.0 12796791.0
0.0 Main_Page en 1.0 8533729872.0
0.0 Main_Page en 1.0 8533729872.0
0.0 File:RealM-Shahter15_(4).jpg en 1.0 2872430.0
0.0 Project_Tango en 1.0 2930664.0
0.0 File:Evander_Holyfield_LA_2011.jpg en 1.0 175595651.0
0.0 Special:UserLogin en 1.0 1047123130.0
0.0 Special:BlankPage en 1.0 942340592.0
0.0 Superman:_Red_Son en 1.0 2442522.0
0.0 File:Evander_Holyfield_LA_2011.jpg en 1.0 175595651.0
0.0 The_Hateful_Eight en 1.0 37973477.0
0.0 UFC_Fight_Night_83 en 1.0 2420382.0
0.0 Special:BlankPage en 1.0 942340592.0
0.0 Star_Wars:_The_Force_Awakens en 1.0 360319666.0
0.0 File:Will_Ferrell_2013.jpg en 1.0 2631840.0
0.0 Special:UserLogin en 1.0 1047123130.0
0.0 Special:BlankPage en 1.0 942340592.0
0.0 Main_Page en 1.0 8533729872.0
0.0 Main_Page en 1.0 8533729872.0
0.0 Special:UserLogin en 1.0 1047123130.0
0.0 Web_scraping en 1.0 28358326.0
0.0 Main_Page en 1.0 8533729872.0
0.0 Main_Page en 1.0 8533729872.0
0.0 Tears_in_rain_monologue en 1.0 3016914.0
0.0 Main_Page en 1.0 8533729872.0
0.0 Antarctica en 1.0 13991614.0
0.0 Eternity_II_puzzle en 1.0 41705811.0
0.0 Main_Page en 1.0 8533729872.0
0.0 Main_Page en 1.0 8533729872.0
0.0 Main_Page en 1.0 8533729872.0
0.0 Shades_of_Blue_(TV_series) en 1.0 10930701.0
0.0 Android_Marshmallow en 1.0 2611169.0
0.0 Main_Page en 1.0 8533729872.0
0.0 The_Revenant_(2015_film) en 1.0 59359352.0
0.0 Main_Page en 1.0 8533729872.0
0.0 Java_(programming_language) en 1.0 9701848.0
0.0 Main_Page en 1.0 8533729872.0
0.0 Main_Page en 1.0 8533729872.0
0.0 Main_Page en 1.0 8533729872.0
0.0 Main_Page en 1.0 8533729872.0
0.0 Main_Page en 1.0 8533729872.0
0.0 Point_Break en 1.0 2601976.0
0.0 Main_Page en 1.0 8533729872.0
0.0 Main_Page en 1.0 8533729872.0
0.0 Shivaji en 1.0 11329531.0
0.0 Main_Page en 1.0 8533729872.0
0.0 Main_Page en 1.0 8533729872.0
0.0 List_of_Jane_the_Virgin_episodes en 1.0 4114227.0
0.0 Main_Page en 1.0 8533729872.0
0.0 Main_Page en 1.0 8533729872.0
0.0 Main_Page en 1.0 8533729872.0
0.0 Main_Page en 1.0 8533729872.0
0.0 Yoshio_Tachibana en 1.0 5473637.0
0.0 Main_Page en 1.0 8533729872.0
0.0 Main_Page en 1.0 8533729872.0
0.0 The_Last_Kingdom_(TV_series) en 1.0 4417285.0
0.0 Main_Page en 1.0 8533729872.0
0.0 Special:UserLogin en 1.0 1047123130.0
0.0 Blog en 1.0 10304600.0
0.0 Volleyball_at_the_2016_Summer_Olympics_%E2%80%93_Men%27s_qualification en 1.0 2878174.0
0.0 The_Martian_(film) en 1.0 26081842.0
0.0 Main_Page en 1.0 8533729872.0
0.0 Demat_account en 1.0 174061131.0
0.0 Thai_Pongal en 1.0 2593377.0
0.0 Main_Page en 1.0 8533729872.0
0.0 Special:UserLogin en 1.0 1047123130.0
0.0 Liverpool_F.C. en 1.0 14921776.0
0.0 Ridley_Scott en 1.0 6126874.0
0.0 Main_Page en 1.0 8533729872.0
0.0 Chauranga en 1.0 2449713.0
0.0 Special:BlankPage en 1.0 942340592.0
0.0 Special:BlankPage en 1.0 942340592.0
0.0 Main_Page en 1.0 8533729872.0
0.0 Ludwig_von_Mises en 1.0 14814659.0
0.0 Main_Page en 1.0 8533729872.0
0.0 Main_Page en 1.0 8533729872.0
0.0 Main_Page en 1.0 8533729872.0
0.0 Main_Page en 1.0 8533729872.0
0.0 Main_Page en 1.0 8533729872.0
0.0 Main_Page en 1.0 8533729872.0
0.0 Main_Page en 1.0 8533729872.0
0.0 Main_Page en 1.0 8533729872.0
0.0 Special:BlankPage en 1.0 942340592.0
0.0 Special:BlankPage en 1.0 942340592.0
0.0 Main_Page en 1.0 8533729872.0
0.0 Main_Page en 1.0 8533729872.0
0.0 Cephalopod en 1.0 103351379.0
0.0 Special:Search en 1.0 108047570.0
0.0 Main_Page en 1.0 8533729872.0
0.0 Bernie_Sanders en 1.0 22384993.0
0.0 Main_Page en 1.0 8533729872.0
0.0 Special:UserLogin en 1.0 1047123130.0
0.0 Main_Page en 1.0 8533729872.0
0.0 Main_Page en 1.0 8533729872.0
0.0 Main_Page en 1.0 8533729872.0
0.0 Special:Search en 1.0 108047570.0
0.0 Main_Page en 1.0 8533729872.0
0.0 Main_Page en 1.0 8533729872.0
0.0 Main_Page en 1.0 8533729872.0
0.0 Main_Page en 1.0 8533729872.0
0.0 Main_Page en 1.0 8533729872.0
0.0 Main_Page en 1.0 8533729872.0
0.0 Main_Page en 1.0 8533729872.0
0.0 Rabindranath_Tagore en 1.0 12548916.0
0.0 File:Evander_Holyfield_LA_2011.jpg en 1.0 175595651.0
0.0 Special:UserLogin en 1.0 1047123130.0
0.0 Main_Page en 1.0 8533729872.0
0.0 Main_Page en 1.0 8533729872.0
0.0 File:Japaneese_War_Trials_B.pdf en 1.0 1179792.0
0.0 Main_Page en 1.0 8533729872.0
0.0 Kirsten_Dunst en 1.0 7118288.0
0.0 Japanese_language en 1.0 28561150.0
0.0 Main_Page en 1.0 8533729872.0
0.0 Main_Page en 1.0 8533729872.0
0.0 Main_Page en 1.0 8533729872.0
0.0 Guardians_of_the_Galaxy_(film) en 1.0 13508956.0
0.0 Elon_Musk en 1.0 19097824.0
0.0 The_Revenant_(2015_film) en 1.0 59359352.0
0.0 The_Shannara_Chronicles en 1.0 24672996.0
0.0 Main_Page en 1.0 8533729872.0
0.0 Main_Page en 1.0 8533729872.0
0.0 South_Africa en 1.0 34508969.0
0.0 File:Japaneese_War_Trials_A.pdf en 1.0 4524437.0
0.0 Main_Page en 1.0 8533729872.0
0.0 D%27Angelo_Russell en 1.0 1880179.0
0.0 Schizophrenia en 1.0 14847463.0
0.0 Main_Page en 1.0 8533729872.0
0.0 Main_Page en 1.0 8533729872.0
0.0 N.W.A en 1.0 6784070.0
0.0 Pakistan en 1.0 74684938.0
0.0 File:Selpologne.jpg en 1.0 1560664.0
0.0 Main_Page en 1.0 8533729872.0
0.0 Delhi en 1.0 16320655.0
0.0 Main_Page en 1.0 8533729872.0
0.0 Special:UserLogin en 1.0 1047123130.0
0.0 Main_Page en 1.0 8533729872.0
0.0 Java_(programming_language) en 1.0 9701848.0
0.0 The_Revenant_(2015_film) en 1.0 59359352.0
0.0 List_of_states_with_nuclear_weapons en 1.0 10879151.0
0.0 Special:BlankPage en 1.0 942340592.0
0.0 United_States en 1.0 177805436.0
0.0 Main_Page en 1.0 8533729872.0
0.0 2016_Hopman_Cup en 1.0 3640089.0
0.0 Main_Page en 1.0 8533729872.0
0.0 Operation_Downfall en 1.0 2178564.0
0.0 Web_scraping en 1.0 28358326.0
0.0 Bangalore en 1.0 15967266.0
0.0 Main_Page en 1.0 8533729872.0
0.0 Main_Page en 1.0 8533729872.0
0.0 Special:BlankPage en 1.0 942340592.0
0.0 Digital_marketing en 1.0 2820935.0
0.0 Main_Page en 1.0 8533729872.0
0.0 Main_Page en 1.0 8533729872.0
0.0 Volleyball_at_the_2016_Summer_Olympics_%E2%80%93_Women%27s_qualification en 1.0 1769437.0
0.0 File:Mike_Piazza_(1999).jpg en 1.0 2237409.0
0.0 Special:BlankPage en 1.0 942340592.0
0.0 Main_Page en 1.0 8533729872.0
0.0 Star_Wars:_The_Force_Awakens en 1.0 360319666.0
0.0 Stanford_University en 1.0 423477444.0
0.0 Main_Page en 1.0 8533729872.0
0.0 Much_Ado_About_Nothing en 1.0 40783320.0
0.0 Main_Page en 1.0 8533729872.0
0.0 Main_Page en 1.0 8533729872.0
0.0 Main_Page en 1.0 8533729872.0
0.0 Special:BlankPage en 1.0 942340592.0
0.0 Main_Page en 1.0 8533729872.0
0.0 Main_Page en 1.0 8533729872.0
0.0 Main_Page en 1.0 8533729872.0
0.0 Special:UserLogin en 1.0 1047123130.0
0.0 Main_Page en 1.0 8533729872.0
0.0 Main_Page en 1.0 8533729872.0
0.0 Main_Page en 1.0 8533729872.0
0.0 Cetacea en 1.0 49460268.0
0.0 2016_Pathankot_attack en 1.0 22086189.0
0.0 Main_Page en 1.0 8533729872.0
0.0 Bruce_Kingsbury en 1.0 16659828.0
0.0 Main_Page en 1.0 8533729872.0
0.0 Main_Page en 1.0 8533729872.0
0.0 Main_Page en 1.0 8533729872.0
0.0 Main_Page en 1.0 8533729872.0
0.0 Main_Page en 1.0 8533729872.0
0.0 Special:BlankPage en 1.0 942340592.0
0.0 Main_Page en 1.0 8533729872.0
0.0 Main_Page en 1.0 8533729872.0
0.0 Main_Page en 1.0 8533729872.0
0.0 Main_Page en 1.0 8533729872.0
0.0 Main_Page en 1.0 8533729872.0
0.0 Orange_Is_the_New_Black en 1.0 9276044.0
0.0 Java_(programming_language) en 1.0 9701848.0
0.0 Main_Page en 1.0 8533729872.0
0.0 Main_Page en 1.0 8533729872.0
0.0 Special:UserLogin en 1.0 1047123130.0
0.0 Main_Page en 1.0 8533729872.0
0.0 Special:UserLogin en 1.0 1047123130.0
0.0 Main_Page en 1.0 8533729872.0
0.0 Special:Search en 1.0 108047570.0
0.0 Adnan_Januzaj en 1.0 2844403.0
0.0 Special:UserLogin en 1.0 1047123130.0
0.0 Holly_Holm en 1.0 8323157.0
0.0 Main_Page en 1.0 8533729872.0
0.0 Special:UserLogin en 1.0 1047123130.0
0.0 Special:UserLogin en 1.0 1047123130.0
0.0 Main_Page en 1.0 8533729872.0
0.0 Chichijima_incident en 1.0 156777745.0
0.0 Main_Page en 1.0 8533729872.0
0.0 Main_Page en 1.0 8533729872.0
0.0 Special:BlankPage en 1.0 942340592.0
0.0 Main_Page en 1.0 8533729872.0
0.0 Star_Wars:_The_Force_Awakens en 1.0 360319666.0
0.0 Special:BlankPage en 1.0 942340592.0
0.0 Main_Page en 1.0 8533729872.0
0.0 Main_Page en 1.0 8533729872.0
0.0 Rafael_dos_Anjos en 1.0 16916167.0
0.0 Special:UserLogin en 1.0 1047123130.0
0.0 Suez_Canal en 1.0 10922938.0
0.0 Main_Page en 1.0 8533729872.0
0.0 J._Cole en 1.0 4045965.0
0.0 Main_Page en 1.0 8533729872.0
0.0 Main_Page en 1.0 8533729872.0
0.0 France en 1.0 53300038.0
0.0 Main_Page en 1.0 8533729872.0
0.0 United_States_Army en 1.0 13066038.0
0.0 Tsunami en 1.0 6046016.0
0.0 Main_Page en 1.0 8533729872.0
0.0 Special:BlankPage en 1.0 942340592.0
0.0 Barack_obama en 1.0 255717473.0
0.0 Special:BlankPage en 1.0 942340592.0
0.0 Main_Page en 1.0 8533729872.0
0.0 Chicago_P.D._(TV_series) en 1.0 4645914.0
0.0 Main_Page en 1.0 8533729872.0
0.0 Main_Page en 1.0 8533729872.0
0.0 English_language en 1.0 39096281.0
0.0 Main_Page en 1.0 8533729872.0
0.0 Making_a_Murderer en 1.0 33144160.0
0.0 Main_Page en 1.0 8533729872.0
0.0 Special:BlankPage en 1.0 942340592.0
0.0 Template:Syrian_Civil_War_detailed_map en 1.0 94140064.0
0.0 Main_Page en 1.0 8533729872.0
0.0 Main_Page en 1.0 8533729872.0
0.0 Main_Page en 1.0 8533729872.0
0.0 Need_for_Speed en 1.0 4230879.0
0.0 Alicia_Vikander en 1.0 7673928.0
0.0 Special:BlankPage en 1.0 942340592.0
0.0 Main_Page en 1.0 8533729872.0
0.0 Guns_N%27_Roses en 1.0 46117877.0
0.0 File:Evander_Holyfield_LA_2011.jpg en 1.0 175595651.0
0.0 Demat_account en 1.0 174061131.0
0.0 Main_Page en 1.0 8533729872.0
0.0 File:Andy_Keogh_Cardiff_City.jpg en 1.0 1501760.0
0.0 Main_Page en 1.0 8533729872.0
0.0 Main_Page en 1.0 8533729872.0
0.0 Main_Page en 1.0 8533729872.0
0.0 Main_Page en 1.0 8533729872.0
0.0 Main_Page en 1.0 8533729872.0
0.0 Main_Page en 1.0 8533729872.0
0.0 Special:HideBanners en 1.0 0.0
0.0 Main_Page en 1.0 8533729872.0
0.0 .rss en 1.0 49554765.0
0.0 Special:UserLogin en 1.0 1047123130.0
0.0 Domain_Name_System en 1.0 4982779.0
0.0 Demat_account en 1.0 174061131.0
0.0 Special:Search en 1.0 108047570.0
0.0 Special:BlankPage en 1.0 942340592.0
0.0 Main_Page en 1.0 8533729872.0
0.0 Main_Page en 1.0 8533729872.0
0.0 Web_scraping en 1.0 28358326.0
0.0 Jessica_Jones_(TV_series) en 1.0 33724287.0
0.0 Main_Page en 1.0 8533729872.0
0.0 File:Aamir_Khan_March_2015.jpg en 1.0 4716747.0
0.0 Special:Search en 1.0 108047570.0
0.0 Ronda_Rousey en 1.0 20115325.0
0.0 Special:BlankPage en 1.0 942340592.0
0.0 Special:Watchlist en 1.0 76035929.0
0.0 File:David_Cameron_official.jpg en 1.0 4932213.0
0.0 File:Evander_Holyfield_LA_2011.jpg en 1.0 175595651.0
0.0 Main_Page en 1.0 8533729872.0
0.0 Chichijima_incident en 1.0 156777745.0
0.0 Main_Page en 1.0 8533729872.0
0.0 Main_Page en 1.0 8533729872.0
0.0 Main_Page en 1.0 8533729872.0
0.0 Main_Page en 1.0 8533729872.0
0.0 Heroes_Reborn_(miniseries) en 1.0 20334182.0
0.0 Web_scraping en 1.0 28358326.0
0.0 Main_Page en 1.0 8533729872.0
0.0 Pasanga_2 en 1.0 1420689.0
0.0 Demat_account en 1.0 174061131.0
0.0 Special:Search en 1.0 108047570.0
0.0 Main_Page en 1.0 8533729872.0
0.0 Main_Page en 1.0 8533729872.0
0.0 Special:Search en 1.0 108047570.0
0.0 Obi-Wan_Kenobi en 1.0 4319506.0
0.0 Main_Page en 1.0 8533729872.0
0.0 index.html en 1.0 14152311.0
0.0 Main_Page en 1.0 8533729872.0
0.0 Main_Page en 1.0 8533729872.0
0.0 Star_Wars:_The_Clone_Wars_(film) en 1.0 4421941.0
0.0 Main_Page en 1.0 8533729872.0
0.0 Main_Page en 1.0 8533729872.0
0.0 Special:UserLogin en 1.0 1047123130.0
0.0 Main_Page en 1.0 8533729872.0
0.0 Main_Page en 1.0 8533729872.0
0.0 Main_Page en 1.0 8533729872.0
0.0 Main_Page en 1.0 8533729872.0
0.0 Special:BlankPage en 1.0 942340592.0
0.0 Chichijima_incident en 1.0 156777745.0
0.0 Main_Page en 1.0 8533729872.0
0.0 Special:BlankPage en 1.0 942340592.0
0.0 Gold en 1.0 13194657.0
0.0 Special:HideBanners en 1.0 0.0
0.0 Julia_Roberts en 1.0 5359034.0
0.0 Main_Page en 1.0 8533729872.0
0.0 Limitless_(TV_series) en 1.0 6975050.0
0.0 Main_Page en 1.0 8533729872.0
0.0 Natsamrat en 1.0 2846279.0
0.0 Special:UserLogin en 1.0 1047123130.0
0.0 Special:BlankPage en 1.0 942340592.0
0.0 Eternity_II_puzzle en 1.0 41705811.0
0.0 Main_Page en 1.0 8533729872.0
0.0 Main_Page en 1.0 8533729872.0
0.0 Special:Search en 1.0 108047570.0
0.0 Star_Wars:_The_Force_Awakens en 1.0 360319666.0
0.0 Main_Page en 1.0 8533729872.0
0.0 1996_Air_Africa_crash en 1.0 5230043.0
0.0 Hugh_Glass en 1.0 13929229.0
0.0 Ted_Cruz en 1.0 37071537.0
0.0 Main_Page en 1.0 8533729872.0
0.0 Main_Page en 1.0 8533729872.0
0.0 Special:BlankPage en 1.0 942340592.0
0.0 Main_Page en 1.0 8533729872.0
0.0 Main_Page en 1.0 8533729872.0
0.0 Main_Page en 1.0 8533729872.0
0.0 The_Big_Bang_Theory en 1.0 42550433.0
0.0 Main_Page en 1.0 8533729872.0
0.0 Main_Page en 1.0 8533729872.0
0.0 Oman en 1.0 13783599.0
0.0 David_Bowie en 1.0 103675600.0
0.0 Colin_Trevorrow en 1.0 2200395.0
0.0 Main_Page en 1.0 8533729872.0
0.0 Gay en 1.0 4700385.0
0.0 Special:Search en 1.0 108047570.0
0.0 Main_Page en 1.0 8533729872.0
0.0 2.0_(film) en 1.0 2296521.0
0.0 Main_Page en 1.0 8533729872.0
0.0 Special:BlankPage en 1.0 942340592.0
0.0 Special:UserLogin en 1.0 1047123130.0
0.0 Main_Page en 1.0 8533729872.0
0.0 Main_Page en 1.0 8533729872.0
0.0 Fairy_Tail en 1.0 3819288.0
0.0 Main_Page en 1.0 8533729872.0
0.0 File:Evander_Holyfield_LA_2011.jpg en 1.0 175595651.0
0.0 Main_Page en 1.0 8533729872.0
0.0 Category:All_accuracy_disputes en 1.0 2751914.0
0.0 Main_Page en 1.0 8533729872.0
0.0 88th_Academy_Awards en 1.0 5043953.0
0.0 Main_Page en 1.0 8533729872.0
0.0 List_of_Gravity_Falls_episodes en 1.0 2991251.0
0.0 United_States_antitrust_law en 1.0 9515633.0
0.0 Information_technology en 1.0 5006561.0
0.0 Special:UserLogin en 1.0 1047123130.0
0.0 Atomic_bombings_of_Hiroshima_and_Nagasaki en 1.0 30316121.0
0.0 Demat_account en 1.0 174061131.0
0.0 Chichijima_incident en 1.0 156777745.0
0.0 Special:BlankPage en 1.0 942340592.0
0.0 Main_Page en 1.0 8533729872.0
0.0 Wikipedia:Citation_needed en 1.0 3321149.0
0.0 Main_Page en 1.0 8533729872.0
0.0 Main_Page en 1.0 8533729872.0
0.0 Lyme_disease en 1.0 15322829.0
0.0 Sherlock_(TV_series) en 1.0 46371239.0
0.0 Main_Page en 1.0 8533729872.0
0.0 Main_Page en 1.0 8533729872.0
0.0 Main_Page en 1.0 8533729872.0
0.0 Main_Page en 1.0 8533729872.0
0.0 Main_Page en 1.0 8533729872.0
0.0 Main_Page en 1.0 8533729872.0
0.0 Main_Page en 1.0 8533729872.0
0.0 Main_Page en 1.0 8533729872.0
0.0 Main_Page en 1.0 8533729872.0
0.0 Main_Page en 1.0 8533729872.0
0.0 Main_Page en 1.0 8533729872.0
0.0 Main_Page en 1.0 8533729872.0
0.0 Main_Page en 1.0 8533729872.0
0.0 Main_Page en 1.0 8533729872.0
0.0 Ed_and_Lorraine_Warren en 1.0 5676251.0
0.0 Special:BlankPage en 1.0 942340592.0
0.0 Eternity_II_puzzle en 1.0 41705811.0
0.0 Mongolia en 1.0 12764726.0
0.0 Main_Page en 1.0 8533729872.0
0.0 Main_Page en 1.0 8533729872.0
0.0 Main_Page en 1.0 8533729872.0
0.0 Main_Page en 1.0 8533729872.0
0.0 Supergirl_(U.S._TV_series) en 1.0 18117233.0
0.0 Main_Page en 1.0 8533729872.0
0.0 Main_Page en 1.0 8533729872.0
0.0 Main_Page en 1.0 8533729872.0
0.0 Special:BlankPage en 1.0 942340592.0
0.0 Main_Page en 1.0 8533729872.0
0.0 Main_Page en 1.0 8533729872.0
0.0 List_of_The_Big_Bang_Theory_episodes en 1.0 46964178.0
0.0 Reign_(TV_series) en 1.0 3443030.0
0.0 Commonwealth_of_Nations en 1.0 51337377.0
0.0 Main_Page en 1.0 8533729872.0
0.0 List_of_Telugu_films_of_2015 en 1.0 6253879.0
0.0 Special:Search en 1.0 108047570.0
0.0 Main_Page en 1.0 8533729872.0
0.0 Special:BlankPage en 1.0 942340592.0
0.0 T.J._Dillashaw en 1.0 2523419.0
0.0 Special:UserLogin en 1.0 1047123130.0
0.0 Main_Page en 1.0 8533729872.0
0.0 Main_Page en 1.0 8533729872.0
0.0 Main_Page en 1.0 8533729872.0
0.0 Demat_account en 1.0 174061131.0
0.0 Special:UserLogin en 1.0 1047123130.0
0.0 Anna_Kendrick en 1.0 5133652.0
0.0 Special:UserLogin en 1.0 1047123130.0
0.0 Main_Page en 1.0 8533729872.0
0.0 File:Golden_Globe_Trophy.jpg en 1.0 9956097.0
0.0 Main_Page en 1.0 8533729872.0
0.0 Main_Page en 1.0 8533729872.0
0.0 Special:Search en 1.0 108047570.0
0.0 Jessica_Jones en 1.0 9638941.0
0.0 Main_Page en 1.0 8533729872.0
0.0 Main_Page en 1.0 8533729872.0
0.0 Main_Page en 1.0 8533729872.0
0.0 File:Evander_Holyfield_LA_2011.jpg en 1.0 175595651.0
0.0 Special:BlankPage en 1.0 942340592.0
0.0 Main_Page en 1.0 8533729872.0
0.0 Ajit_Doval en 1.0 1854761.0
0.0 Main_Page en 1.0 8533729872.0
0.0 Special:UserLogin en 1.0 1047123130.0
0.0 Main_Page en 1.0 8533729872.0
0.0 Main_Page en 1.0 8533729872.0
0.0 Main_Page en 1.0 8533729872.0
0.0 Main_Page en 1.0 8533729872.0
0.0 Michael_Burry en 1.0 4160559.0
0.0 Special:Search en 1.0 108047570.0
0.0 Special:BlankPage en 1.0 942340592.0
0.0 Jenna_Dewan en 1.0 24310477.0
0.0 John_Cena en 1.0 38703885.0
0.0 Main_Page en 1.0 8533729872.0
0.0 Main_Page en 1.0 8533729872.0
0.0 Main_Page en 1.0 8533729872.0
0.0 Main_Page en 1.0 8533729872.0
0.0 Main_Page en 1.0 8533729872.0
0.0 Main_Page en 1.0 8533729872.0
0.0 Special:BlankPage en 1.0 942340592.0
0.0 Main_Page en 1.0 8533729872.0
0.0 Main_Page en 1.0 8533729872.0
0.0 Main_Page en 1.0 8533729872.0
0.0 Blue_whale en 1.0 10080236.0
0.0 Special:BlankPage en 1.0 942340592.0
0.0 Main_Page en 1.0 8533729872.0
0.0 Main_Page en 1.0 8533729872.0
0.0 Main_Page en 1.0 8533729872.0
0.0 Main_Page en 1.0 8533729872.0
0.0 Main_Page en 1.0 8533729872.0
0.0 Chichijima_incident en 1.0 156777745.0
0.0 Main_Page en 1.0 8533729872.0
0.0 Main_Page en 1.0 8533729872.0
0.0 Main_Page en 1.0 8533729872.0
0.0 Marvel_Cinematic_Universe en 1.0 14849234.0
0.0 Main_Page en 1.0 8533729872.0
0.0 Special:UserLogin en 1.0 1047123130.0
0.0 Main_Page en 1.0 8533729872.0
0.0 HTTP_404 en 1.0 5393697.0
0.0 Main_Page en 1.0 8533729872.0
0.0 2015_United_Nations_Climate_Change_Conference en 1.0 5809550.0
0.0 File:Golden_Globe_Trophy.jpg en 1.0 9956097.0
0.0 Main_Page en 1.0 8533729872.0
0.0 Main_Page en 1.0 8533729872.0
0.0 File:Planned_Parenthood_logo.svg en 1.0 2256425.0
0.0 Main_Page en 1.0 8533729872.0
0.0 Main_Page en 1.0 8533729872.0
0.0 Main_Page en 1.0 8533729872.0
0.0 Main_Page en 1.0 8533729872.0
0.0 Supernatural_(U.S._TV_series) en 1.0 14394462.0
0.0 Main_Page en 1.0 8533729872.0
0.0 Frankie_Pierre en 1.0 3874120.0
0.0 Main_Page en 1.0 8533729872.0
0.0 Main_Page en 1.0 8533729872.0
0.0 Special:BlankPage en 1.0 942340592.0
0.0 Main_Page en 1.0 8533729872.0
0.0 Special:BlankPage en 1.0 942340592.0
0.0 Main_Page en 1.0 8533729872.0
0.0 Bikini en 1.0 177244701.0
0.0 C_(programming_language) en 1.0 8172068.0
0.0 Main_Page en 1.0 8533729872.0
0.0 Milky_Way en 1.0 13137115.0
0.0 Main_Page en 1.0 8533729872.0
0.0 Main_Page en 1.0 8533729872.0
0.0 Main_Page en 1.0 8533729872.0
0.0 Main_Page en 1.0 8533729872.0
0.0 Special:UserLogin en 1.0 1047123130.0
0.0 Main_Page en 1.0 8533729872.0
0.0 Main_Page en 1.0 8533729872.0
0.0 Will_Poulter en 1.0 2981017.0
0.0 Main_Page en 1.0 8533729872.0
0.0 Special:UserLogin en 1.0 1047123130.0
0.0 Main_Page en 1.0 8533729872.0
0.0 Main_Page en 1.0 8533729872.0
0.0 Main_Page en 1.0 8533729872.0
0.0 Main_Page en 1.0 8533729872.0
0.0 Main_Page en 1.0 8533729872.0
0.0 Main_Page en 1.0 8533729872.0
0.0 Joe_Cole en 1.0 6327331.0
0.0 Main_Page en 1.0 8533729872.0
0.0 Main_Page en 1.0 8533729872.0
0.0 Main_Page en 1.0 8533729872.0
0.0 Main_Page en 1.0 8533729872.0
0.0 Special:UserLogin en 1.0 1047123130.0
0.0 Main_Page en 1.0 8533729872.0
0.0 Bajirao_Mastani en 1.0 24566641.0
0.0 Main_Page en 1.0 8533729872.0
0.0 File:Evander_Holyfield_LA_2011.jpg en 1.0 175595651.0
0.0 Main_Page en 1.0 8533729872.0
0.0 Demat_account en 1.0 174061131.0
0.0 Main_Page en 1.0 8533729872.0
0.0 Main_Page en 1.0 8533729872.0
0.0 Main_Page en 1.0 8533729872.0
0.0 List_of_2_Broke_Girls_episodes en 1.0 6140646.0
0.0 Main_Page en 1.0 8533729872.0
0.0 List_of_UFC_events en 1.0 49434449.0
0.0 Main_Page en 1.0 8533729872.0
0.0 Main_Page en 1.0 8533729872.0
0.0 Main_Page en 1.0 8533729872.0
0.0 Main_Page en 1.0 8533729872.0
0.0 Main_Page en 1.0 8533729872.0
0.0 The_Jinx_(miniseries) en 1.0 4067703.0
0.0 Main_Page en 1.0 8533729872.0
0.0 Special:BlankPage en 1.0 942340592.0
0.0 Main_Page en 1.0 8533729872.0
0.0 Main_Page en 1.0 8533729872.0
0.0 Main_Page en 1.0 8533729872.0
0.0 Main_Page en 1.0 8533729872.0
0.0 Main_Page en 1.0 8533729872.0
0.0 Gugu_Mbatha-Raw en 1.0 2415382.0
0.0 Main_Page en 1.0 8533729872.0
0.0 File:Evander_Holyfield_LA_2011.jpg en 1.0 175595651.0
0.0 Special:BlankPage en 1.0 942340592.0
0.0 Main_Page en 1.0 8533729872.0
0.0 Special:BlankPage en 1.0 942340592.0
0.0 Main_Page en 1.0 8533729872.0
0.0 Better_Call_Saul en 1.0 5821162.0
0.0 Special:BlankPage en 1.0 942340592.0
0.0 Main_Page en 1.0 8533729872.0
0.0 Main_Page en 1.0 8533729872.0
0.0 Main_Page en 1.0 8533729872.0
0.0 Main_Page en 1.0 8533729872.0
0.0 Fetty_Wap en 1.0 2921049.0
0.0 Furious_7 en 1.0 14409463.0
0.0 Chichijima_incident en 1.0 156777745.0
0.0 Japanese_war_crimes en 1.0 16355220.0
0.0 Main_Page en 1.0 8533729872.0
0.0 Main_Page en 1.0 8533729872.0
0.0 Main_Page en 1.0 8533729872.0
0.0 wiki/w/index.php en 1.0 6948016.0
0.0 Main_Page en 1.0 8533729872.0
0.0 List_of_countries_by_GDP_(nominal) en 1.0 23100989.0
0.0 Main_Page en 1.0 8533729872.0
0.0 Special:BlankPage en 1.0 942340592.0
0.0 Main_Page en 1.0 8533729872.0
0.0 Special:BlankPage en 1.0 942340592.0
0.0 Main_Page en 1.0 8533729872.0
0.0 Main_Page en 1.0 8533729872.0
0.0 Main_Page en 1.0 8533729872.0
0.0 Mia_Khalifa en 1.0 6421048.0
0.0 Main_Page en 1.0 8533729872.0
0.0 Special:BlankPage en 1.0 942340592.0
0.0 Main_Page en 1.0 8533729872.0
0.0 Main_Page en 1.0 8533729872.0
0.0 Pat_Harrington,_Jr. en 1.0 7221610.0
0.0 Special:BlankPage en 1.0 942340592.0
0.0 Special:Search en 1.0 108047570.0
0.0 Main_Page en 1.0 8533729872.0
0.0 List_of_Bollywood_films_of_2015 en 1.0 33642693.0
0.0 Ice_Cube en 1.0 16099362.0
0.0 Ex_Machina_(film) en 1.0 5868062.0
0.0 George_H._W._Bush_vomiting_incident en 1.0 14363364.0
0.0 Special:UserLogin en 1.0 1047123130.0
0.0 Main_Page en 1.0 8533729872.0
0.0 Star_Wars:_The_Force_Awakens en 1.0 360319666.0
0.0 Main_Page en 1.0 8533729872.0
0.0 Special:BlankPage en 1.0 942340592.0
0.0 Main_Page en 1.0 8533729872.0
0.0 Main_Page en 1.0 8533729872.0
0.0 Main_Page en 1.0 8533729872.0
0.0 Special:UserLogin en 1.0 1047123130.0
0.0 Special:UserLogin en 1.0 1047123130.0
0.0 Main_Page en 1.0 8533729872.0
0.0 Special:BlankPage en 1.0 942340592.0
0.0 Maharashtra en 1.0 15238347.0
0.0 Main_Page en 1.0 8533729872.0
0.0 Main_Page en 1.0 8533729872.0
0.0 Main_Page en 1.0 8533729872.0
0.0 Pixar en 1.0 5439222.0
0.0 Main_Page en 1.0 8533729872.0
0.0 Main_Page en 1.0 8533729872.0
0.0 Fitoor en 1.0 4426342.0
0.0 Main_Page en 1.0 8533729872.0
0.0 Main_Page en 1.0 8533729872.0
0.0 Special:UserLogin en 1.0 1047123130.0
0.0 Chris_Hemsworth en 1.0 5111747.0
0.0 Main_Page en 1.0 8533729872.0
0.0 Main_Page en 1.0 8533729872.0
0.0 Main_Page en 1.0 8533729872.0
0.0 Main_Page en 1.0 8533729872.0
0.0 Special:BlankPage en 1.0 942340592.0
0.0 Main_Page en 1.0 8533729872.0
0.0 Special:BlankPage en 1.0 942340592.0
0.0 Main_Page en 1.0 8533729872.0
0.0 Chichijima_incident en 1.0 156777745.0
0.0 Special:Search en 1.0 108047570.0
0.0 Chichijima_incident en 1.0 156777745.0
0.0 Main_Page en 1.0 8533729872.0
0.0 Main_Page en 1.0 8533729872.0
0.0 Justin_Bieber en 1.0 29899369.0
0.0 Main_Page en 1.0 8533729872.0
0.0 Main_Page en 1.0 8533729872.0
0.0 Main_Page en 1.0 8533729872.0
0.0 Main_Page en 1.0 8533729872.0
0.0 Ant-Man_(film) en 1.0 19230013.0
0.0 Special:UserLogin en 1.0 1047123130.0
0.0 Fiji en 1.0 9425232.0
0.0 Main_Page en 1.0 8533729872.0
0.0 Pablo_Escobar en 1.0 16208686.0
0.0 Wazir_(film) en 1.0 28376882.0
0.0 Web_scraping en 1.0 28358326.0
0.0 Main_Page en 1.0 8533729872.0
0.0 List_of_Arrow_episodes en 1.0 31274243.0
0.0 Main_Page en 1.0 8533729872.0
0.0 Li-Fi en 1.0 2450556.0
0.0 Special:BlankPage en 1.0 942340592.0
0.0 Main_Page en 1.0 8533729872.0
0.0 Main_Page en 1.0 8533729872.0
0.0 Special:BlankPage en 1.0 942340592.0
0.0 Main_Page en 1.0 8533729872.0
0.0 Special:BlankPage en 1.0 942340592.0
0.0 Ken_Kratz en 1.0 2165998.0
0.0 Tom_Hardy en 1.0 10777905.0
0.0 Main_Page en 1.0 8533729872.0
0.0 Main_Page en 1.0 8533729872.0
0.0 Main_Page en 1.0 8533729872.0
0.0 Main_Page en 1.0 8533729872.0
0.0 Sasha_Grey en 1.0 6814915.0
0.0 Skylake_(microarchitecture) en 1.0 5905739.0
0.0 .rss en 1.0 49554765.0
0.0 File:Evander_Holyfield_LA_2011.jpg en 1.0 175595651.0
0.0 Main_Page en 1.0 8533729872.0
0.0 Main_Page en 1.0 8533729872.0
0.0 Main_Page en 1.0 8533729872.0
0.0 Main_Page en 1.0 8533729872.0
0.0 Fifty_Shades_of_Grey_(film) en 1.0 13216983.0
0.0 Main_Page en 1.0 8533729872.0
0.0 Gordon_Gollob en 1.0 55856045.0
0.0 Main_Page en 1.0 8533729872.0
0.0 Main_Page en 1.0 8533729872.0
0.0 Main_Page en 1.0 8533729872.0
0.0 Java_(programming_language) en 1.0 9701848.0
0.0 Charlie_Puth en 1.0 3856517.0
0.0 Category:Articles_containing_potentially_dated_statements_from_February_2015 en 1.0 4156452.0
0.0 Chakravartin_Ashoka_Samrat en 1.0 2418744.0
0.0 George_Lucas en 1.0 14405521.0
0.0 Main_Page en 1.0 8533729872.0
0.0 Main_Page en 1.0 8533729872.0
0.0 Main_Page en 1.0 8533729872.0
0.0 Main_Page en 1.0 8533729872.0
0.0 Main_Page en 1.0 8533729872.0
0.0 Main_Page en 1.0 8533729872.0
0.0 Vagina en 1.0 9455716.0
0.0 Main_Page en 1.0 8533729872.0
0.0 Matthew_McConaughey en 1.0 4776053.0
0.0 File:US_Navy_100915-N-4790M-040_Lanier_Phillips,_left,_Bill_Cosby_and_Ed_LeBaron_pose_for_a_picture_before_receiving_the_Lone_Sailor_Award_at_the_Nation_(cropped_to_Cosby).jpg en 1.0 3625077.0
0.0 File:Evander_Holyfield_LA_2011.jpg en 1.0 175595651.0
0.0 Main_Page en 1.0 8533729872.0
0.0 Special:Search en 1.0 108047570.0
0.0 Shaquille_O%27Neal en 1.0 19706456.0
0.0 Main_Page en 1.0 8533729872.0
0.0 Main_Page en 1.0 8533729872.0
0.0 Anal_sex en 1.0 11115489.0
0.0 The_Revenant_(2015_film) en 1.0 59359352.0
0.0 Main_Page en 1.0 8533729872.0
0.0 Main_Page en 1.0 8533729872.0
0.0 Special:BlankPage en 1.0 942340592.0
0.0 Austria en 1.0 12350999.0
0.0 Main_Page en 1.0 8533729872.0
0.0 Demat_account en 1.0 174061131.0
0.0 Main_Page en 1.0 8533729872.0
0.0 Special:UserLogin en 1.0 1047123130.0
0.0 Main_Page en 1.0 8533729872.0
0.0 Gotham_(TV_series) en 1.0 10547379.0
0.0 Demat_account en 1.0 174061131.0
0.0 Fan_death en 1.0 10355056.0
0.0 Main_Page en 1.0 8533729872.0
0.0 Main_Page en 1.0 8533729872.0
0.0 Chichijima_incident en 1.0 156777745.0
0.0 Special:Search en 1.0 108047570.0
0.0 United_States_dollar en 1.0 10255084.0
0.0 Main_Page en 1.0 8533729872.0
0.0 Main_Page en 1.0 8533729872.0
0.0 William_Gibson en 1.0 280778305.0
0.0 File:Evander_Holyfield_LA_2011.jpg en 1.0 175595651.0
0.0 Main_Page en 1.0 8533729872.0
0.0 Special:UserLogin en 1.0 1047123130.0
0.0 Main_Page en 1.0 8533729872.0
0.0 International_Bank_Account_Number en 1.0 7846269.0
0.0 Main_Page en 1.0 8533729872.0
0.0 Main_Page en 1.0 8533729872.0
0.0 Hydrogen en 1.0 12047752.0
0.0 Chichijima_incident en 1.0 156777745.0
0.0 Wikipedia:General_disclaimer en 1.0 3982162.0
0.0 Special:BlankPage en 1.0 942340592.0
0.0 Main_Page en 1.0 8533729872.0
0.0 Barack_obama en 1.0 255717473.0
0.0 Main_Page en 1.0 8533729872.0
0.0 Main_Page en 1.0 8533729872.0
0.0 Main_Page en 1.0 8533729872.0
0.0 John_Boyega en 1.0 17504336.0
0.0 Main_Page en 1.0 8533729872.0
0.0 Rian_Johnson en 1.0 3826371.0
0.0 Main_Page en 1.0 8533729872.0
0.0 Main_Page en 1.0 8533729872.0
0.0 Special:Search en 1.0 108047570.0
0.0 Main_Page en 1.0 8533729872.0
0.0 Main_Page en 1.0 8533729872.0
0.0 Java_(programming_language) en 1.0 9701848.0
0.0 Comparison_of_DNS_blacklists en 1.0 10242424.0
0.0 Main_Page en 1.0 8533729872.0
0.0 Main_Page en 1.0 8533729872.0
0.0 Main_Page en 1.0 8533729872.0
0.0 Constitution_of_India en 1.0 5237100.0
0.0 Dunning%E2%80%93Kruger_effect en 1.0 1925252.0
0.0 Belarus en 1.0 28099757.0
0.0 File:Evander_Holyfield_LA_2011.jpg en 1.0 175595651.0
0.0 Special:UserLogin en 1.0 1047123130.0
0.0 Main_Page en 1.0 8533729872.0
0.0 Main_Page en 1.0 8533729872.0
0.0 Main_Page en 1.0 8533729872.0
0.0 Special:UserLogin en 1.0 1047123130.0
0.0 Main_Page en 1.0 8533729872.0
0.0 The_Blacklist_(season_3) en 1.0 6085539.0
0.0 Main_Page en 1.0 8533729872.0
0.0 Special:UserLogin en 1.0 1047123130.0
0.0 Main_Page en 1.0 8533729872.0
0.0 Great_Pyramid_of_Giza en 1.0 4704204.0
0.0 Main_Page en 1.0 8533729872.0
0.0 United_States_presidential_election,_2016 en 1.0 33432714.0
0.0 Special:UserLogin en 1.0 1047123130.0
0.0 Main_Page en 1.0 8533729872.0
0.0 Adele en 1.0 55900581.0
0.0 One_Day_at_a_Time en 1.0 4366622.0
0.0 Main_Page en 1.0 8533729872.0
0.0 Firehouse,_Hook_%26_Ladder_Company_8 en 1.0 6562070.0
0.0 Main_Page en 1.0 8533729872.0
0.0 Galileo_Galilei en 1.0 17617853.0
0.0 Special:Search en 1.0 108047570.0
0.0 Special:UserLogin en 1.0 1047123130.0
0.0 The_Office_(U.S._TV_series) en 1.0 13499987.0
0.0 Special:UserLogin en 1.0 1047123130.0
0.0 Special:Search en 1.0 108047570.0
0.0 File:Michael_Jackson_in_1988.jpg en 1.0 6527560.0
0.0 Main_Page en 1.0 8533729872.0
0.0 Main_Page en 1.0 8533729872.0
0.0 Main_Page en 1.0 8533729872.0
0.0 Main_Page en 1.0 8533729872.0
0.0 Cyprus en 1.0 21900362.0
0.0 Jerry_Seinfeld en 1.0 5503975.0
0.0 Main_Page en 1.0 8533729872.0
0.0 Main_Page en 1.0 8533729872.0
0.0 Special:UserLogin en 1.0 1047123130.0
0.0 Main_Page en 1.0 8533729872.0
0.0 Main_Page en 1.0 8533729872.0
0.0 Main_Page en 1.0 8533729872.0
0.0 Portal:Current_events en 1.0 77636666.0
0.0 Special:BlankPage en 1.0 942340592.0
0.0 Special:BlankPage en 1.0 942340592.0
0.0 Main_Page en 1.0 8533729872.0
0.0 Chichijima_incident en 1.0 156777745.0
0.0 Demat_account en 1.0 174061131.0
0.0 Hugh_Glass en 1.0 13929229.0
0.0 Main_Page en 1.0 8533729872.0
0.0 Main_Page en 1.0 8533729872.0
0.0 Main_Page en 1.0 8533729872.0
0.0 Thailand en 1.0 33170769.0
0.0 Web_scraping en 1.0 28358326.0
0.0 Main_Page en 1.0 8533729872.0
0.0 Main_Page en 1.0 8533729872.0
0.0 Oprah_Winfrey en 1.0 12580206.0
0.0 Main_Page en 1.0 8533729872.0
0.0 Main_Page en 1.0 8533729872.0
0.0 Main_Page en 1.0 8533729872.0
0.0 Main_Page en 1.0 8533729872.0
0.0 Main_Page en 1.0 8533729872.0
0.0 War_and_Peace_(2016_TV_series) en 1.0 2221044.0
0.0 German_Moreno en 1.0 14611541.0
0.0 Main_Page en 1.0 8533729872.0
0.0 Special:BlankPage en 1.0 942340592.0
0.0 Main_Page en 1.0 8533729872.0
0.0 Main_Page en 1.0 8533729872.0
0.0 File:Kobe_Bryant_2014.jpg en 1.0 1986110.0
0.0 Special:BlankPage en 1.0 942340592.0
0.0 Main_Page en 1.0 8533729872.0
0.0 Special:BlankPage en 1.0 942340592.0
0.0 Computer_font en 1.0 20765.0
0.0 Main_Page en 1.0 8533729872.0
0.0 Special:UserLogin en 1.0 1047123130.0
0.0 Special:BlankPage en 1.0 942340592.0
0.0 Portal:Current_events en 1.0 77636666.0
0.0 Main_Page en 1.0 8533729872.0
0.0 Main_Page en 1.0 8533729872.0
0.0 The_Forest_(2016_film) en 1.0 11222918.0
0.0 Special:HideBanners en 1.0 0.0
0.0 Main_Page en 1.0 8533729872.0
0.0 File:CONMEBOL_logo.svg en 1.0 1940040.0
0.0 Main_Page en 1.0 8533729872.0
0.0 Netflix en 1.0 169502962.0
0.0 Main_Page en 1.0 8533729872.0
0.0 wiki//en.wikipedia.org/w/index.php en 1.0 8360145.0
0.0 Microsoft_Office en 1.0 6395477.0
0.0 Bill_Clinton en 1.0 58238843.0
0.0 The_Martian_(film) en 1.0 26081842.0
0.0 Main_Page en 1.0 8533729872.0
0.0 Main_Page en 1.0 8533729872.0
0.0 Madaya,_Syria en 1.0 2080008.0
0.0 Main_Page en 1.0 8533729872.0
0.0 Special:UserLogin en 1.0 1047123130.0
0.0 List_of_countries_and_dependencies_by_population en 1.0 7053624.0
0.0 Main_Page en 1.0 8533729872.0
0.0 Pablo_Escobar en 1.0 16208686.0
0.0 UFC_195 en 1.0 4075997.0
0.0 File:Evander_Holyfield_LA_2011.jpg en 1.0 175595651.0
0.0 Ivy_League en 1.0 6742405.0
0.0 Bloodline_(TV_series) en 1.0 3916404.0
0.0 Main_Page en 1.0 8533729872.0
0.0 Special:Search en 1.0 108047570.0
0.0 Chichijima_incident en 1.0 156777745.0
0.0 Main_Page en 1.0 8533729872.0
0.0 Main_Page en 1.0 8533729872.0
0.0 Main_Page en 1.0 8533729872.0
0.0 Demat_account en 1.0 174061131.0
0.0 Portal:Current_events en 1.0 77636666.0
0.0 Brooklyn_(film) en 1.0 3446349.0
0.0 Main_Page en 1.0 8533729872.0
0.0 Main_Page en 1.0 8533729872.0
0.0 Arijit_Singh en 1.0 6142098.0
0.0 Main_Page en 1.0 8533729872.0
0.0 Game_of_Thrones en 1.0 78026053.0
0.0 Main_Page en 1.0 8533729872.0
0.0 Main_Page en 1.0 8533729872.0
0.0 Main_Page en 1.0 8533729872.0
0.0 Main_Page en 1.0 8533729872.0
0.0 Java_(programming_language) en 1.0 9701848.0
0.0 Chichijima_incident en 1.0 156777745.0
0.0 Bikini en 1.0 177244701.0
0.0 Java_(programming_language) en 1.0 9701848.0
0.0 David_Bowie_discography en 1.0 6219712.0
0.0 2015_Chinese_stock_market_crash en 1.0 5561259.0
0.0 Special:BlankPage en 1.0 942340592.0
0.0 Special:BlankPage en 1.0 942340592.0
0.0 Main_Page en 1.0 8533729872.0
0.0 Special:UserLogin en 1.0 1047123130.0
0.0 Main_Page en 1.0 8533729872.0
0.0 Main_Page en 1.0 8533729872.0
0.0 Special:UserLogin en 1.0 1047123130.0
0.0 Jimmy_Butler_(basketball) en 1.0 3089514.0
0.0 Bloodborne en 1.0 4406182.0
0.0 George_H._W._Bush en 1.0 221410448.0
0.0 Main_Page en 1.0 8533729872.0
0.0 Main_Page en 1.0 8533729872.0
0.0 Main_Page en 1.0 8533729872.0
0.0 Wikipedia en 1.0 114702369.0
0.0 Yami_Gautam en 1.0 3316800.0
0.0 Main_Page en 1.0 8533729872.0
0.0 List_of_Person_of_Interest_episodes en 1.0 14278344.0
0.0 Dakota_Johnson en 1.0 7194037.0
0.0 Special:Search en 1.0 108047570.0
0.0 Main_Page en 1.0 8533729872.0
0.0 Special:BlankPage en 1.0 942340592.0
0.0 Cephalopod en 1.0 103351379.0
0.0 Law_%26_Order:_Special_Victims_Unit en 1.0 6919307.0
0.0 Special:UserLogin en 1.0 1047123130.0
0.0 Java_(programming_language) en 1.0 9701848.0
0.0 File:FIFA_logo_without_slogan.svg en 1.0 1692380.0
0.0 File:Evander_Holyfield_LA_2011.jpg en 1.0 175595651.0
0.0 Main_Page en 1.0 8533729872.0
0.0 Britney_Spears en 1.0 13659510.0
0.0 Main_Page en 1.0 8533729872.0
0.0 Battle_of_New_Orleans en 1.0 37927987.0
0.0 PID_controller en 1.0 4544222.0
0.0 Main_Page en 1.0 8533729872.0
0.0 Main_Page en 1.0 8533729872.0
0.0 Main_Page en 1.0 8533729872.0
0.0 Web_scraping en 1.0 28358326.0
0.0 Main_Page en 1.0 8533729872.0
0.0 Special:BlankPage en 1.0 942340592.0
0.0 File:Alain_Perrin_al_khor.jpg en 1.0 3802668.0
0.0 Mad_Men en 1.0 11158684.0
0.0 Parks_and_Recreation en 1.0 14918429.0
0.0 Main_Page en 1.0 8533729872.0
0.0 Main_Page en 1.0 8533729872.0
0.0 Scotland en 1.0 23674329.0
0.0 Building_information_modeling en 1.0 15033164.0
0.0 Main_Page en 1.0 8533729872.0
0.0 Main_Page en 1.0 8533729872.0
0.0 Main_Page en 1.0 8533729872.0
0.0 Main_Page en 1.0 8533729872.0
0.0 List_of_highest-grossing_films en 1.0 167724226.0
0.0 Joy_(film) en 1.0 13022270.0
0.0 George_H._W._Bush en 1.0 221410448.0
0.0 Special:MyTalk en 1.0 3614150.0
0.0 Main_Page en 1.0 8533729872.0
0.0 Main_Page en 1.0 8533729872.0
0.0 Main_Page en 1.0 8533729872.0
0.0 Special:BlankPage en 1.0 942340592.0
0.0 Special:BlankPage en 1.0 942340592.0
0.0 Johnny_Galecki en 1.0 2658972.0
0.0 Main_Page en 1.0 8533729872.0
0.0 Main_Page en 1.0 8533729872.0
0.0 List_of_country_calling_codes en 1.0 16365136.0
0.0 Main_Page en 1.0 8533729872.0
0.0 Main_Page en 1.0 8533729872.0
0.0 Main_Page en 1.0 8533729872.0
0.0 Main_Page en 1.0 8533729872.0
0.0 Scott_Eastwood en 1.0 3841751.0
0.0 Main_Page en 1.0 8533729872.0
0.0 New_Year%27s_Eve_sexual_assaults_in_Germany en 1.0 29613078.0
0.0 Spectre_(2015_film) en 1.0 22761417.0
0.0 List_of_Bollywood_films_of_2015 en 1.0 33642693.0
0.0 Main_Page en 1.0 8533729872.0
0.0 Shannara en 1.0 7677775.0
0.0 Special:BlankPage en 1.0 942340592.0
0.0 Ddd en 1.0 56799834.0
0.0 Main_Page en 1.0 8533729872.0
0.0 Main_Page en 1.0 8533729872.0
0.0 Main_Page en 1.0 8533729872.0
0.0 Main_Page en 1.0 8533729872.0
0.0 Main_Page en 1.0 8533729872.0
0.0 Main_Page en 1.0 8533729872.0
0.0 The_Shannara_Chronicles en 1.0 24672996.0
0.0 Main_Page en 1.0 8533729872.0
0.0 Special:BlankPage en 1.0 942340592.0
0.0 Main_Page en 1.0 8533729872.0
0.0 Main_Page en 1.0 8533729872.0
0.0 Jan_Kirchhoff en 1.0 3880556.0
0.0 Marlon_Brando en 1.0 8648287.0
0.0 Main_Page en 1.0 8533729872.0
0.0 Donnie_Yen en 1.0 5061841.0
0.0 Demat_account en 1.0 174061131.0
0.0 Java_(programming_language) en 1.0 9701848.0
0.0 The_Good_Wife en 1.0 6874225.0
0.0 Main_Page en 1.0 8533729872.0
0.0 Special:BlankPage en 1.0 942340592.0
0.0 Main_Page en 1.0 8533729872.0
0.0 Main_Page en 1.0 8533729872.0
0.0 Yarloop,_Western_Australia en 1.0 7485652.0
0.0 File:Michael_Jackson_in_1988.jpg en 1.0 6527560.0
0.0 Main_Page en 1.0 8533729872.0
0.0 Aubrey_Plaza en 1.0 2883577.0
0.0 Main_Page en 1.0 8533729872.0
0.0 Promod en 1.0 6396998.0
0.0 Periodic_table en 1.0 24445070.0
0.0 Special:BlankPage en 1.0 942340592.0
0.0 United_States en 1.0 177805436.0
0.0 Main_Page en 1.0 8533729872.0
0.0 Carrie_Fisher en 1.0 12708968.0
0.0 Main_Page en 1.0 8533729872.0
0.0 Java_(programming_language) en 1.0 9701848.0
0.0 Main_Page en 1.0 8533729872.0
0.0 Main_Page en 1.0 8533729872.0
0.0 Main_Page en 1.0 8533729872.0
0.0 Main_Page en 1.0 8533729872.0
0.0 ITIL en 1.0 5389930.0
0.0 2016_in_film en 1.0 37397840.0
0.0 Main_Page en 1.0 8533729872.0
0.0 Main_Page en 1.0 8533729872.0
0.0 Amitabh_Bachchan en 1.0 10670964.0
0.0 Industrial_Revolution en 1.0 12881848.0
0.0 Main_Page en 1.0 8533729872.0
0.0 Main_Page en 1.0 8533729872.0
0.0 Main_Page en 1.0 8533729872.0
0.0 Main_Page en 1.0 8533729872.0
0.0 Jessica_Jones_(TV_series) en 1.0 33724287.0
0.0 The_Hateful_Eight en 1.0 37973477.0
0.0 Special:BlankPage en 1.0 942340592.0
0.0 Main_Page en 1.0 8533729872.0
0.0 Matthias_Buchinger en 1.0 2183796.0
0.0 List_of_Steven_Universe_episodes en 1.0 46549233.0
0.0 Main_Page en 1.0 8533729872.0
0.0 Main_Page en 1.0 8533729872.0
0.0 List_of_Reign_(TV_series)_episodes en 1.0 4019821.0
0.0 Chroma_subsampling en 1.0 8423509.0
0.0 Main_Page en 1.0 8533729872.0
0.0 Main_Page en 1.0 8533729872.0
0.0 New_Year%27s_Eve_sexual_assaults_in_Germany en 1.0 29613078.0
0.0 James_Wan en 1.0 4363749.0
0.0 Microsoft_Windows en 1.0 9989453.0
0.0 Special:UserLogin en 1.0 1047123130.0
0.0 Special:BlankPage en 1.0 942340592.0
0.0 Main_Page en 1.0 8533729872.0
0.0 The_Witcher_3:_Wild_Hunt en 1.0 4562312.0
0.0 Malaysia en 1.0 32598721.0
0.0 Blade_Runner en 1.0 74936268.0
0.0 Main_Page en 1.0 8533729872.0
0.0 Sydney en 1.0 21040459.0
0.0 Main_Page en 1.0 8533729872.0
0.0 George_H._W._Bush en 1.0 221410448.0
0.0 Special:UserLogin en 1.0 1047123130.0
0.0 Main_Page en 1.0 8533729872.0
0.0 File:Evander_Holyfield_LA_2011.jpg en 1.0 175595651.0
0.0 Main_Page en 1.0 8533729872.0
0.0 Birdman_(film) en 1.0 10943069.0
0.0 Main_Page en 1.0 8533729872.0
0.0 Jenna_Dewan en 1.0 24310477.0
0.0 File:Mike_Rowe.jpg en 1.0 3140480.0
0.0 Special:UserLogin en 1.0 1047123130.0
0.0 Special:UserLogin en 1.0 1047123130.0
0.0 Special:BlankPage en 1.0 942340592.0
0.0 Cloud_computing en 1.0 13115953.0
0.0 Main_Page en 1.0 8533729872.0
0.0 Special:BlankPage en 1.0 942340592.0
0.0 Special:UserLogin en 1.0 1047123130.0
0.0 Main_Page en 1.0 8533729872.0
0.0 Leonard_White_(producer) en 1.0 1729980.0
0.0 Main_Page en 1.0 8533729872.0
0.0 Special:BlankPage en 1.0 942340592.0
0.0 Main_Page en 1.0 8533729872.0
0.0 Main_Page en 1.0 8533729872.0
0.0 Main_Page en 1.0 8533729872.0
0.0 Main_Page en 1.0 8533729872.0
0.0 File:NB_HOF_logo.png en 1.0 1322139.0
0.0 Istanbul en 1.0 21727498.0
0.0 Main_Page en 1.0 8533729872.0
0.0 Main_Page en 1.0 8533729872.0
0.0 Bikini en 1.0 177244701.0
0.0 Main_Page en 1.0 8533729872.0
0.0 Main_Page en 1.0 8533729872.0
0.0 Eternity_II_puzzle en 1.0 41705811.0
0.0 Quentin_Tarantino en 1.0 39212819.0
0.0 Tsar_Bomba en 1.0 6846663.0
0.0 Main_Page en 1.0 8533729872.0
0.0 Demat_account en 1.0 174061131.0
0.0 File:Evander_Holyfield_LA_2011.jpg en 1.0 175595651.0
0.0 Main_Page en 1.0 8533729872.0
0.0 Thomas_Edison en 1.0 14775660.0
0.0 Main_Page en 1.0 8533729872.0
0.0 File:Evander_Holyfield_LA_2011.jpg en 1.0 175595651.0
0.0 Martin_Scorsese en 1.0 15217888.0
0.0 Special:Upload en 1.0 1440468.0
0.0 Main_Page en 1.0 8533729872.0
0.0 Main_Page en 1.0 8533729872.0
0.0 Main_Page en 1.0 8533729872.0
0.0 Miesha_Tate en 1.0 6287453.0
0.0 Chichijima_incident en 1.0 156777745.0
0.0 Brazil en 1.0 66892658.0
0.0 Arikara en 1.0 2791039.0
0.0 Main_Page en 1.0 8533729872.0
0.0 Dexter_Holland en 1.0 4797883.0
0.0 Top_Chef_(season_13) en 1.0 2837782.0
0.0 Main_Page en 1.0 8533729872.0
0.0 Main_Page en 1.0 8533729872.0
0.0 Main_Page en 1.0 8533729872.0
0.0 The_Undertaker en 1.0 11545479.0
0.0 Main_Page en 1.0 8533729872.0
0.0 List_of_Rick_and_Morty_episodes en 1.0 1749415.0
0.0 Main_Page en 1.0 8533729872.0
0.0 Main_Page en 1.0 8533729872.0
0.0 Main_Page en 1.0 8533729872.0
0.0 Main_Page en 1.0 8533729872.0
0.0 Chichijima_incident en 1.0 156777745.0
0.0 The_Forest_(2016_film) en 1.0 11222918.0
0.0 Main_Page en 1.0 8533729872.0
0.0 Special:UserLogin en 1.0 1047123130.0
0.0 Main_Page en 1.0 8533729872.0
0.0 Main_Page en 1.0 8533729872.0
0.0 Main_Page en 1.0 8533729872.0
0.0 2016_Kaliachak_riots en 1.0 2981124.0
0.0 Main_Page en 1.0 8533729872.0
0.0 Special:UserLogin en 1.0 1047123130.0
0.0 Main_Page en 1.0 8533729872.0
0.0 Muhammad en 1.0 28982266.0
0.0 Special:BlankPage en 1.0 942340592.0
0.0 Sian_Blake en 1.0 12936061.0
0.0 Main_Page en 1.0 8533729872.0
0.0 Harry_Styles en 1.0 3355721.0
0.0 HTTP_404 en 1.0 5393697.0
0.0 Main_Page en 1.0 8533729872.0
0.0 Agents_of_S.H.I.E.L.D. en 1.0 14202337.0
0.0 Main_Page en 1.0 8533729872.0
0.0 Main_Page en 1.0 8533729872.0
0.0 Main_Page en 1.0 8533729872.0
0.0 The_Forest_(2016_film) en 1.0 11222918.0
0.0 Bulgaria en 1.0 57163484.0
0.0 Main_Page en 1.0 8533729872.0
0.0 Main_Page en 1.0 8533729872.0
0.0 Special:UserLogin en 1.0 1047123130.0
0.0 Main_Page en 1.0 8533729872.0
0.0 Main_Page en 1.0 8533729872.0
0.0 Category:Articles_with_hCards en 1.0 9232856.0
0.0 Main_Page en 1.0 8533729872.0
0.0 Main_Page en 1.0 8533729872.0
0.0 Main_Page en 1.0 8533729872.0
0.0 Main_Page en 1.0 8533729872.0
0.0 Main_Page en 1.0 8533729872.0
0.0 Special:UserLogin en 1.0 1047123130.0
0.0 Chichijima_incident en 1.0 156777745.0
0.0 Special:UserLogin en 1.0 1047123130.0
0.0 Main_Page en 1.0 8533729872.0
0.0 Assassination_Classroom en 1.0 3843353.0
0.0 Main_Page en 1.0 8533729872.0
0.0 Main_Page en 1.0 8533729872.0
0.0 Star_Wars:_The_Force_Awakens en 1.0 360319666.0
0.0 Special:UserLogin en 1.0 1047123130.0
0.0 Main_Page en 1.0 8533729872.0
0.0 Main_Page en 1.0 8533729872.0
0.0 Web_scraping en 1.0 28358326.0
0.0 Main_Page en 1.0 8533729872.0
0.0 Kuwait en 1.0 9389485.0
0.0 Special:BlankPage en 1.0 942340592.0
0.0 Main_Page en 1.0 8533729872.0
0.0 Main_Page en 1.0 8533729872.0
0.0 Garud_Commando_Force en 1.0 1953863.0
0.0 Main_Page en 1.0 8533729872.0
0.0 Main_Page en 1.0 8533729872.0
0.0 Web_scraping en 1.0 28358326.0
0.0 Special:UserLogin en 1.0 1047123130.0
0.0 Main_Page en 1.0 8533729872.0
0.0 Main_Page en 1.0 8533729872.0
0.0 Main_Page en 1.0 8533729872.0
0.0 List_of_longest-living_organisms en 1.0 4362468.0
0.0 Special:Search en 1.0 108047570.0
0.0 Main_Page en 1.0 8533729872.0
0.0 Main_Page en 1.0 8533729872.0
0.0 Stephen_Hawking en 1.0 40873878.0
0.0 Main_Page en 1.0 8533729872.0
0.0 Special:Search en 1.0 108047570.0
0.0 Deadpool en 1.0 15464307.0
0.0 2016_Brisbane_International en 1.0 2461917.0
0.0 German_Moreno en 1.0 14611541.0
0.0 Special:UserLogin en 1.0 1047123130.0
0.0 Special:UserLogin en 1.0 1047123130.0
0.0 Main_Page en 1.0 8533729872.0
0.0 Austin_Butler en 1.0 3882092.0
0.0 Executive_order en 1.0 3303163.0
0.0 Special:BlankPage en 1.0 942340592.0
0.0 List_of_Steven_Universe_episodes en 1.0 46549233.0
0.0 Bikini en 1.0 177244701.0
0.0 Sri_Lanka en 1.0 31316129.0
0.0 Special:UserLogin en 1.0 1047123130.0
0.0 Special:BlankPage en 1.0 942340592.0
0.0 Siya_Ke_Ram en 1.0 1693840.0
0.0 Chichijima_incident en 1.0 156777745.0
0.0 Special:BlankPage en 1.0 942340592.0
0.0 Ethiopia en 1.0 21114798.0
0.0 Main_Page en 1.0 8533729872.0
0.0 Airlift_(film) en 1.0 5723291.0
0.0 Special:BlankPage en 1.0 942340592.0
0.0 Main_Page en 1.0 8533729872.0
0.0 List_of_Lip_Sync_Battle_episodes en 1.0 9514977.0
0.0 Main_Page en 1.0 8533729872.0
0.0 Main_Page en 1.0 8533729872.0
0.0 Malala_Yousafzai en 1.0 12489989.0
0.0 Main_Page en 1.0 8533729872.0
0.0 Main_Page en 1.0 8533729872.0
0.0 Main_Page en 1.0 8533729872.0
0.0 Special:UserLogin en 1.0 1047123130.0
0.0 Special:UserLogin en 1.0 1047123130.0
0.0 The_Big_Short_(film) en 1.0 17303600.0
0.0 Special:UserLogin en 1.0 1047123130.0
0.0 Special:UserLogin en 1.0 1047123130.0
0.0 Main_Page en 1.0 8533729872.0
0.0 Main_Page en 1.0 8533729872.0
0.0 Main_Page en 1.0 8533729872.0
0.0 Nivin_Pauly en 1.0 2792087.0
0.0 Main_Page en 1.0 8533729872.0
0.0 On_Writing en 1.0 5497785.0
0.0 American_Civil_War en 1.0 26291057.0
0.0 Special:UserLogin en 1.0 1047123130.0
0.0 File:HM_Government_logo.svg en 1.0 1471104.0
0.0 Main_Page en 1.0 8533729872.0
0.0 Special:UserLogin en 1.0 1047123130.0
0.0 Main_Page en 1.0 8533729872.0
0.0 Main_Page en 1.0 8533729872.0
0.0 Main_Page en 1.0 8533729872.0
0.0 Ddd en 1.0 56799834.0
0.0 Main_Page en 1.0 8533729872.0
0.0 Main_Page en 1.0 8533729872.0
0.0 Andy_Serkis en 1.0 4610967.0
0.0 January_8 en 1.0 50914427.0
0.0 Main_Page en 1.0 8533729872.0
0.0 Java_(programming_language) en 1.0 9701848.0
0.0 File:Evander_Holyfield_LA_2011.jpg en 1.0 175595651.0
0.0 Main_Page en 1.0 8533729872.0
0.0 Ashraf_Pahlavi en 1.0 9246578.0
0.0 Main_Page en 1.0 8533729872.0
0.0 Category:Wikipedia_articles_with_LCCN_identifiers en 1.0 3133594.0
0.0 Main_Page en 1.0 8533729872.0
0.0 Java_(programming_language) en 1.0 9701848.0
0.0 Special:Search en 1.0 108047570.0
0.0 Tamasha_(film) en 1.0 16990116.0
0.0 Gordon_Ramsay en 1.0 6850215.0
0.0 Karl_Marx en 1.0 13777992.0
0.0 Paul_McCartney en 1.0 17241960.0
0.0 Main_Page en 1.0 8533729872.0
0.0 Aristotle en 1.0 11719542.0
0.0 Special:UserLogin en 1.0 1047123130.0
0.0 Lithuania en 1.0 17843378.0
0.0 Main_Page en 1.0 8533729872.0
0.0 Main_Page en 1.0 8533729872.0
0.0 Demat_account en 1.0 174061131.0
0.0 Main_Page en 1.0 8533729872.0
0.0 Special:UserLogin en 1.0 1047123130.0
0.0 Main_Page en 1.0 8533729872.0
0.0 Suriya en 1.0 3305196.0
0.0 Main_Page en 1.0 8533729872.0
0.0 Main_Page en 1.0 8533729872.0
0.0 Gerda_Wegener en 1.0 1888759.0
0.0 Sian_Blake en 1.0 12936061.0
0.0 2016 en 1.0 3437852.0
0.0 Main_Page en 1.0 8533729872.0
0.0 File:Donald_August_19_(cropped).jpg en 1.0 16354475.0
0.0 Main_Page en 1.0 8533729872.0
0.0 Main_Page en 1.0 8533729872.0
0.0 Chichijima_incident en 1.0 156777745.0
0.0 Main_Page en 1.0 8533729872.0
0.0 Special:HideBanners en 1.0 0.0
0.0 Lip_Sync_Battle en 1.0 17720380.0
0.0 Main_Page en 1.0 8533729872.0
0.0 Black_Mirror_(TV_series) en 1.0 3071228.0
0.0 Main_Page en 1.0 8533729872.0
0.0 Main_Page en 1.0 8533729872.0
0.0 Wikipedia:File_Upload_Wizard en 1.0 6750198.0
0.0 Special:Search en 1.0 108047570.0
0.0 Main_Page en 1.0 8533729872.0
0.0 Bikini en 1.0 177244701.0
0.0 Main_Page en 1.0 8533729872.0
0.0 Special:BlankPage en 1.0 942340592.0
0.0 File:Evander_Holyfield_LA_2011.jpg en 1.0 175595651.0
0.0 Main_Page en 1.0 8533729872.0
0.0 Special:BlankPage en 1.0 942340592.0
0.0 Demat_account en 1.0 174061131.0
0.0 Main_Page en 1.0 8533729872.0
0.0 Special:UserLogin en 1.0 1047123130.0
0.0 Main_Page en 1.0 8533729872.0
0.0 Beyonc%C3%A9 en 1.0 30973907.0
0.0 Main_Page en 1.0 8533729872.0
0.0 David_Bowie en 1.0 103675600.0
0.0 Aria_Giovanni en 1.0 1180810.0
0.0 Main_Page en 1.0 8533729872.0
0.0 Special:UserLogin en 1.0 1047123130.0
0.0 Main_Page en 1.0 8533729872.0
0.0 Special:UserLogin en 1.0 1047123130.0
0.0 Main_Page en 1.0 8533729872.0
0.0 List_of_The_Flash_(2014_TV_series)_episodes en 1.0 18717375.0
0.0 Main_Page en 1.0 8533729872.0
0.0 Main_Page en 1.0 8533729872.0
0.0 Main_Page en 1.0 8533729872.0
0.0 Main_Page en 1.0 8533729872.0
0.0 Ed_and_Lorraine_Warren en 1.0 5676251.0
0.0 Chris_Kyle en 1.0 17818194.0
0.0 List_of_The_Big_Bang_Theory_episodes en 1.0 46964178.0
0.0 Special:UserLogin en 1.0 1047123130.0
0.0 Friends en 1.0 15370245.0
0.0 Main_Page en 1.0 8533729872.0
0.0 Main_Page en 1.0 8533729872.0
0.0 Main_Page en 1.0 8533729872.0
0.0 Main_Page en 1.0 8533729872.0
0.0 Chichijima_incident en 1.0 156777745.0
0.0 File:Evander_Holyfield_LA_2011.jpg en 1.0 175595651.0
0.0 Main_Page en 1.0 8533729872.0
0.0 Special:Search en 1.0 108047570.0
0.0 Dilwale_(2015_film) en 1.0 24935892.0
0.0 Main_Page en 1.0 8533729872.0
0.0 Zac_Efron en 1.0 5823224.0
0.0 Main_Page en 1.0 8533729872.0
0.0 Main_Page en 1.0 8533729872.0
0.0 Main_Page en 1.0 8533729872.0
0.0 Main_Page en 1.0 8533729872.0
0.0 File:2014_ebola_virus_epidemic_in_West_Africa_simplified.svg en 1.0 1143744.0
0.0 Main_Page en 1.0 8533729872.0
0.0 Heroes_Reborn_(miniseries) en 1.0 20334182.0
0.0 Jessica_Jones_(TV_series) en 1.0 33724287.0
0.0 Chichijima_incident en 1.0 156777745.0
0.0 Main_Page en 1.0 8533729872.0
0.0 Chess en 1.0 12165688.0
0.0 Web_scraping en 1.0 28358326.0
0.0 Ronald_Reagan en 1.0 37878895.0
0.0 Special:UserLogin en 1.0 1047123130.0
0.0 Star_Wars:_The_Force_Awakens en 1.0 360319666.0
0.0 Main_Page en 1.0 8533729872.0
0.0 Demat_account en 1.0 174061131.0
0.0 File:Pat_Harrington,_Jr.,_Stump_the_stars_1962.JPG en 1.0 4027604.0
0.0 Main_Page en 1.0 8533729872.0
0.0 Special:UserLogin en 1.0 1047123130.0
0.0 Main_Page en 1.0 8533729872.0
0.0 Main_Page en 1.0 8533729872.0
0.0 Dirty_Grandpa en 1.0 1665907.0
0.0 Main_Page en 1.0 8533729872.0
0.0 Creed_(film) en 1.0 12465330.0
0.0 Main_Page en 1.0 8533729872.0
0.0 Main_Page en 1.0 8533729872.0
0.0 Krysten_Ritter en 1.0 3836919.0
0.0 Main_Page en 1.0 8533729872.0
0.0 Special:BlankPage en 1.0 942340592.0
0.0 Main_Page en 1.0 8533729872.0
0.0 Main_Page en 1.0 8533729872.0
0.0 Special:BlankPage en 1.0 942340592.0
0.0 Native_Americans_in_the_United_States en 1.0 16736907.0
0.0 Main_Page en 1.0 8533729872.0
0.0 Goosebumps_(film) en 1.0 3969447.0
0.0 Main_Page en 1.0 8533729872.0
0.0 Special:UserLogin en 1.0 1047123130.0
0.0 Steven_Avery en 1.0 25258095.0
0.0 Main_Page en 1.0 8533729872.0
0.0 Special:UserLogin en 1.0 1047123130.0
0.0 Bangalore_Naatkal en 1.0 1488766.0
0.0 Bangtan_Boys en 1.0 3935225.0
0.0 Main_Page en 1.0 8533729872.0
0.0 Main_Page en 1.0 8533729872.0
0.0 Cape_Verde en 1.0 81866005.0
0.0 Special:BlankPage en 1.0 942340592.0
0.0 Main_Page en 1.0 8533729872.0
0.0 Special:BlankPage en 1.0 942340592.0
0.0 Special:UserLogin en 1.0 1047123130.0
0.0 Special:BlankPage en 1.0 942340592.0
0.0 Special:BlankPage en 1.0 942340592.0
0.0 Special:UserLogin en 1.0 1047123130.0
0.0 The_Elfstones_of_Shannara en 1.0 4003182.0
0.0 GOOD_Fridays en 1.0 1805107.0
0.0 Main_Page en 1.0 8533729872.0
0.0 Special:UserLogin en 1.0 1047123130.0
0.0 Special:UserLogin en 1.0 1047123130.0
0.0 World_War_I en 1.0 63500157.0
0.0 Main_Page en 1.0 8533729872.0
0.0 Main_Page en 1.0 8533729872.0
0.0 Main_Page en 1.0 8533729872.0
0.0 Vlade_Divac en 1.0 11771371.0
0.0 Special:UserLogin en 1.0 1047123130.0
0.0 Main_Page en 1.0 8533729872.0
0.0 Java_(programming_language) en 1.0 9701848.0
0.0 Seoul en 1.0 11339705.0
0.0 Main_Page en 1.0 8533729872.0
0.0 Main_Page en 1.0 8533729872.0
0.0 List_of_Syrian_Civil_War_barrel_bomb_attacks en 1.0 8114133.0
0.0 File:Crilogo.jpg en 1.0 5759262.0
0.0 Main_Page en 1.0 8533729872.0
0.0 Main_Page en 1.0 8533729872.0
0.0 Hillary_Clinton_presidential_campaign,_2016 en 1.0 1013768180.0
0.0 Varun_Dhawan en 1.0 2326467.0
0.0 Special:BlankPage en 1.0 942340592.0
0.0 Marco_Polo_(TV_series) en 1.0 3414581.0
0.0 Taj_Mahal en 1.0 10938327.0
0.0 Main_Page en 1.0 8533729872.0
0.0 Vin_Diesel en 1.0 5002911.0
0.0 Special:UserLogin en 1.0 1047123130.0
0.0 Jordan en 1.0 16062984.0
0.0 Special:BlankPage en 1.0 942340592.0
0.0 Demat_account en 1.0 174061131.0
0.0 Main_Page en 1.0 8533729872.0
0.0 Main_Page en 1.0 8533729872.0
0.0 Main_Page en 1.0 8533729872.0
0.0 Deep_Note en 1.0 7286054.0
0.0 Main_Page en 1.0 8533729872.0
0.0 Meg_Johnson_(poet) en 1.0 2125523.0
0.0 Main_Page en 1.0 8533729872.0
0.0 Main_Page en 1.0 8533729872.0
0.0 Main_Page en 1.0 8533729872.0
0.0 Wiki en 1.0 25863464.0
0.0 Main_Page en 1.0 8533729872.0
0.0 Main_Page en 1.0 8533729872.0
0.0 George_H._W._Bush_vomiting_incident en 1.0 14363364.0
0.0 Main_Page en 1.0 8533729872.0
0.0 John_Boyega en 1.0 17504336.0
0.0 Special:UserLogin en 1.0 1047123130.0
0.0 Main_Page en 1.0 8533729872.0
0.0 Demat_account en 1.0 174061131.0
0.0 Main_Page en 1.0 8533729872.0
0.0 List_of_countries_by_GDP_(PPP)_per_capita en 1.0 10987507.0
0.0 Main_Page en 1.0 8533729872.0
0.0 Young%27s_modulus en 1.0 4163005.0
0.0 Dilwale_(2015_film) en 1.0 24935892.0
0.0 List_of_The_Big_Bang_Theory_episodes en 1.0 46964178.0
0.0 Special:BlankPage en 1.0 942340592.0
0.0 Main_Page en 1.0 8533729872.0
0.0 Deaths_in_2016 en 1.0 53894002.0
0.0 Netflix en 1.0 169502962.0
0.0 Main_Page en 1.0 8533729872.0
0.0 Main_Page en 1.0 8533729872.0
0.0 Special:UserLogin en 1.0 1047123130.0
0.0 Main_Page en 1.0 8533729872.0
0.0 Main_Page en 1.0 8533729872.0
0.0 Main_Page en 1.0 8533729872.0
0.0 Main_Page en 1.0 8533729872.0
0.0 Main_Page en 1.0 8533729872.0
0.0 Main_Page en 1.0 8533729872.0
0.0 Main_Page en 1.0 8533729872.0
0.0 Main_Page en 1.0 8533729872.0
0.0 Main_Page en 1.0 8533729872.0
0.0 Main_Page en 1.0 8533729872.0
0.0 .rss en 1.0 49554765.0
0.0 Special:BlankPage en 1.0 942340592.0
0.0 Main_Page en 1.0 8533729872.0
0.0 Special:UserLogin en 1.0 1047123130.0
0.0 Special:UserLogin en 1.0 1047123130.0
0.0 Special:UserLogin en 1.0 1047123130.0
0.0 Main_Page en 1.0 8533729872.0
0.0 Main_Page en 1.0 8533729872.0
0.0 Main_Page en 1.0 8533729872.0
0.0 Main_Page en 1.0 8533729872.0
0.0 UFC_Fight_Night:_Dillashaw_vs._Cruz en 1.0 5453283.0
0.0 Corrupted_Blood_incident en 1.0 20892406.0
0.0 Java_(programming_language) en 1.0 9701848.0
0.0 Joe_Biden en 1.0 15883072.0
0.0 Main_Page en 1.0 8533729872.0
0.0 Main_Page en 1.0 8533729872.0
0.0 Affluenza en 1.0 2281618.0
0.0 Cape_verde en 1.0 76457841.0
0.0 Special:BlankPage en 1.0 942340592.0
0.0 List_of_highest-grossing_Bollywood_films en 1.0 12070276.0
0.0 Main_Page en 1.0 8533729872.0
0.0 Main_Page en 1.0 8533729872.0
0.0 Java_(programming_language) en 1.0 9701848.0
0.0 Main_Page en 1.0 8533729872.0
0.0 War_of_1812 en 1.0 26534558.0
0.0 Marketing en 1.0 5383444.0
0.0 Ddd en 1.0 56799834.0
0.0 Main_Page en 1.0 8533729872.0
0.0 Fitoor en 1.0 4426342.0
0.0 Main_Page en 1.0 8533729872.0
0.0 United_States_presidential_election,_2016 en 1.0 33432714.0
0.0 Main_Page en 1.0 8533729872.0
0.0 Main_Page en 1.0 8533729872.0
0.0 Main_Page en 1.0 8533729872.0
0.0 Battle_of_New_Orleans en 1.0 37927987.0
0.0 Special:UserLogin en 1.0 1047123130.0
0.0 Main_Page en 1.0 8533729872.0
0.0 Chichijima_incident en 1.0 156777745.0
0.0 Special:UserLogin en 1.0 1047123130.0
0.0 Main_Page en 1.0 8533729872.0
0.0 Main_Page en 1.0 8533729872.0
0.0 Special:UserLogin en 1.0 1047123130.0
0.0 The_Revenant_(2015_film) en 1.0 59359352.0
0.0 Main_Page en 1.0 8533729872.0
0.0 England en 1.0 34268425.0
0.0 Main_Page en 1.0 8533729872.0
0.0 Main_Page en 1.0 8533729872.0
0.0 Chichijima_incident en 1.0 156777745.0
0.0 Main_Page en 1.0 8533729872.0
0.0 Chlo%C3%AB_Grace_Moretz en 1.0 7652861.0
0.0 Hillary_Clinton_presidential_campaign,_2016 en 1.0 1013768180.0
0.0 The_Shannara_Chronicles en 1.0 24672996.0
0.0 Main_Page en 1.0 8533729872.0
0.0 Main_Page en 1.0 8533729872.0
0.0 Special:BlankPage en 1.0 942340592.0
0.0 Main_Page en 1.0 8533729872.0
0.0 Dark_web en 1.0 3012711.0
0.0 Main_Page en 1.0 8533729872.0
0.0 Hugh_Glass en 1.0 13929229.0
0.0 Netflix en 1.0 169502962.0
0.0 Main_Page en 1.0 8533729872.0
0.0 Main_Page en 1.0 8533729872.0
0.0 Conway%27s_Game_of_Life en 1.0 3540753.0
0.0 Main_Page en 1.0 8533729872.0
0.0 Japan en 1.0 106603655.0
0.0 Special:BlankPage en 1.0 942340592.0
0.0 Main_Page en 1.0 8533729872.0
0.0 LeBron_James en 1.0 19458554.0
0.0 Main_Page en 1.0 8533729872.0
0.0 Main_Page en 1.0 8533729872.0
0.0 Lucifer_(TV_series) en 1.0 4822776.0
0.0 Main_Page en 1.0 8533729872.0
0.0 Main_Page en 1.0 8533729872.0
0.0 File:Evander_Holyfield_LA_2011.jpg en 1.0 175595651.0
0.0 Valerie_Bertinelli en 1.0 3613638.0
0.0 Main_Page en 1.0 8533729872.0
0.0 Main_Page en 1.0 8533729872.0
0.0 History_of_the_Internet en 1.0 10670181.0
0.0 Main_Page en 1.0 8533729872.0
0.0 To_Pimp_a_Butterfly en 1.0 9192715.0
0.0 Special:Watchlist en 1.0 76035929.0
0.0 Jeb_Bush en 1.0 12140734.0
0.0 Consumer_Electronics_Show en 1.0 3361783.0
0.0 Main_Page en 1.0 8533729872.0
0.0 Main_Page en 1.0 8533729872.0
0.0 Main_Page en 1.0 8533729872.0
0.0 Cephalopod en 1.0 103351379.0
0.0 File:Lockheed_Martin_Longbow_Hellfire.jpg en 1.0 1674817.0
0.0 Main_Page en 1.0 8533729872.0
0.0 Special:UserLogin en 1.0 1047123130.0
0.0 Special:UserLogin en 1.0 1047123130.0
0.0 Main_Page en 1.0 8533729872.0
0.0 The_Imitation_Game en 1.0 6131142.0
0.0 Main_Page en 1.0 8533729872.0
0.0 Main_Page en 1.0 8533729872.0
0.0 Tupac_Shakur en 1.0 20155292.0
0.0 List_of_highest-grossing_Indian_films en 1.0 9835160.0
0.0 Special:BlankPage en 1.0 942340592.0
0.0 Main_Page en 1.0 8533729872.0
0.0 Main_Page en 1.0 8533729872.0
0.0 Main_Page en 1.0 8533729872.0
0.0 Akshay_Kumar en 1.0 11650423.0
0.0 Main_Page en 1.0 8533729872.0
0.0 Lemmy en 1.0 20806421.0
0.0 Chichijima_incident en 1.0 156777745.0
0.0 Main_Page en 1.0 8533729872.0
0.0 Thanga_Magan_(2015_film) en 1.0 2368983.0
0.0 Main_Page en 1.0 8533729872.0
0.0 Fallout_4 en 1.0 4275923.0
0.0 Special:UserLogin en 1.0 1047123130.0
0.0 Main_Page en 1.0 8533729872.0
0.0 Main_Page en 1.0 8533729872.0
0.0 2_Broke_Girls en 1.0 5022140.0
0.0 Main_Page en 1.0 8533729872.0
0.0 Original_Shannara_Trilogy en 1.0 1688282.0
0.0 Main_Page en 1.0 8533729872.0
0.0 Main_Page en 1.0 8533729872.0
0.0 Main_Page en 1.0 8533729872.0
0.0 Main_Page en 1.0 8533729872.0
0.0 Main_Page en 1.0 8533729872.0
0.0 Main_Page en 1.0 8533729872.0
0.0 Main_Page en 1.0 8533729872.0
0.0 Demat_account en 1.0 174061131.0
0.0 Main_Page en 1.0 8533729872.0
0.0 Main_Page en 1.0 8533729872.0
0.0 Charlotte_McKinney en 1.0 1649471.0
0.0 Main_Page en 1.0 8533729872.0
0.0 Cephalopod en 1.0 103351379.0
0.0 Rooney_Mara en 1.0 7357705.0
0.0 Ddd en 1.0 56799834.0
0.0 Chichijima_incident en 1.0 156777745.0
0.0 The_Hateful_Eight en 1.0 37973477.0
0.0 Main_Page en 1.0 8533729872.0
0.0 Main_Page en 1.0 8533729872.0
0.0 Stevie_Wright_(Australian_singer) en 1.0 3298093.0
0.0 Main_Page en 1.0 8533729872.0
0.0 Java_(programming_language) en 1.0 9701848.0
0.0 Main_Page en 1.0 8533729872.0
0.0 Special:UserLogin en 1.0 1047123130.0
0.0 The_Offspring en 1.0 17350799.0
0.0 Main_Page en 1.0 8533729872.0
0.0 Main_Page en 1.0 8533729872.0
0.0 Main_Page en 1.0 8533729872.0
0.0 Main_Page en 1.0 8533729872.0
0.0 Iron_Jacket en 1.0 6629539.0
0.0 Main_Page en 1.0 8533729872.0
0.0 Main_Page en 1.0 8533729872.0
0.0 2015_South_Indian_floods en 1.0 16598867.0
0.0 January_8 en 1.0 50914427.0
0.0 Rowan_Atkinson en 1.0 9358333.0
0.0 Main_Page en 1.0 8533729872.0
0.0 Main_Page en 1.0 8533729872.0
0.0 Ludwig_von_Mises en 1.0 14814659.0
0.0 Main_Page en 1.0 8533729872.0
0.0 Victoria_Cross en 1.0 42339077.0
0.0 Demat_account en 1.0 174061131.0
0.0 Main_Page en 1.0 8533729872.0
0.0 Main_Page en 1.0 8533729872.0
0.0 Main_Page en 1.0 8533729872.0
0.0 Main_Page en 1.0 8533729872.0
0.0 Special:UserLogin en 1.0 1047123130.0
0.0 File:Matthew_Morrison_Peabody_2010_(cropped).jpg en 1.0 8598616.0
0.0 Main_Page en 1.0 8533729872.0
0.0 Main_Page en 1.0 8533729872.0
0.0 Persian_language en 1.0 9143197.0
0.0 Main_Page en 1.0 8533729872.0
0.0 Main_Page en 1.0 8533729872.0
0.0 Main_Page en 1.0 8533729872.0
0.0 Main_Page en 1.0 8533729872.0
0.0 Special:BlankPage en 1.0 942340592.0
0.0 Special:UserLogin en 1.0 1047123130.0
0.0 Main_Page en 1.0 8533729872.0
0.0 Special:UserLogin en 1.0 1047123130.0
0.0 Netflix en 1.0 169502962.0
0.0 Special:BlankPage en 1.0 942340592.0
0.0 Special:BlankPage en 1.0 942340592.0
0.0 Main_Page en 1.0 8533729872.0
0.0 Main_Page en 1.0 8533729872.0
0.0 File:Evander_Holyfield_LA_2011.jpg en 1.0 175595651.0
0.0 The_Revenant_(2015_film) en 1.0 59359352.0
0.0 File:IPF_amiodarone.JPG en 1.0 1769880.0
0.0 Main_Page en 1.0 8533729872.0
0.0 Main_Page en 1.0 8533729872.0
0.0 Big_data en 1.0 14516872.0
0.0 Main_Page en 1.0 8533729872.0
0.0 Main_Page en 1.0 8533729872.0
0.0 Java_(programming_language) en 1.0 9701848.0
0.0 Communication en 1.0 3706720.0
0.0 Autonomous_sensory_meridian_response en 1.0 4369357.0
0.0 Special:UserLogin en 1.0 1047123130.0
0.0 Frozen_(2013_film) en 1.0 24375993.0
0.0 Special:BlankPage en 1.0 942340592.0
0.0 KickassTorrents en 1.0 3249322.0
0.0 Main_Page en 1.0 8533729872.0
0.0 Main_Page en 1.0 8533729872.0
0.0 Main_Page en 1.0 8533729872.0
0.0 Pulp_Fiction en 1.0 11115625.0
0.0 FC_Bayern_Munich en 1.0 11452295.0
0.0 Main_Page en 1.0 8533729872.0
0.0 Special:Watchlist en 1.0 76035929.0
0.0 Main_Page en 1.0 8533729872.0
0.0 Main_Page en 1.0 8533729872.0
0.0 Main_Page en 1.0 8533729872.0
0.0 Cold_War en 1.0 24939116.0
0.0 .rss en 1.0 49554765.0
0.0 Chichijima_incident en 1.0 156777745.0
0.0 Special:UserLogin en 1.0 1047123130.0
0.0 Main_Page en 1.0 8533729872.0
0.0 wiki/w/w/index.php en 1.0 2646338.0
0.0 Demat_account en 1.0 174061131.0
0.0 Main_Page en 1.0 8533729872.0
0.0 Chichijima_incident en 1.0 156777745.0
0.0 Main_Page en 1.0 8533729872.0
0.0 Shia_Islam en 1.0 21814502.0
0.0 Main_Page en 1.0 8533729872.0
0.0 Volleyball_at_the_2016_Summer_Olympics en 1.0 3599257.0
0.0 Main_Page en 1.0 8533729872.0
0.0 Main_Page en 1.0 8533729872.0
0.0 Iceland en 1.0 25455100.0
0.0 File:Manchester_United_FC_crest.svg en 1.0 3096137.0
0.0 Main_Page en 1.0 8533729872.0
0.0 Asia en 1.0 12071555.0
0.0 Special:BlankPage en 1.0 942340592.0
0.0 Star_Wars:_The_Force_Awakens en 1.0 360319666.0
0.0 Main_Page en 1.0 8533729872.0
0.0 Special:Search en 1.0 108047570.0
0.0 Main_Page en 1.0 8533729872.0
0.0 File:Evander_Holyfield_LA_2011.jpg en 1.0 175595651.0
0.0 Main_Page en 1.0 8533729872.0
0.0 Special:BlankPage en 1.0 942340592.0
0.0 Chennai en 1.0 18175672.0
0.0 Bikini en 1.0 177244701.0
0.0 Main_Page en 1.0 8533729872.0
0.0 Barack_obama en 1.0 255717473.0
0.0 Special:BlankPage en 1.0 942340592.0
0.0 Main_Page en 1.0 8533729872.0
0.0 Blackstar_(David_Bowie_album) en 1.0 16152081.0
0.0 Main_Page en 1.0 8533729872.0
0.0 Main_Page en 1.0 8533729872.0
0.0 Main_Page en 1.0 8533729872.0
0.0 File:Charlie_Hebdo_logo.svg en 1.0 12336839.0
0.0 Main_Page en 1.0 8533729872.0
0.0 Special:BlankPage en 1.0 942340592.0
0.0 Main_Page en 1.0 8533729872.0
0.0 Chichijima_incident en 1.0 156777745.0
0.0 Star_Wars:_The_Clone_Wars_(2008_TV_series) en 1.0 8315059.0
0.0 Main_Page en 1.0 8533729872.0
0.0 The_Blacklist_(TV_series) en 1.0 15236835.0
0.0 Melbourne en 1.0 13559515.0
0.0 Ronda_Rousey en 1.0 20115325.0
0.0 The_Big_Bang_Theory en 1.0 42550433.0
0.0 Main_Page en 1.0 8533729872.0
0.0 Special:BlankPage en 1.0 942340592.0
0.0 Chichijima_incident en 1.0 156777745.0
0.0 Main_Page en 1.0 8533729872.0
0.0 Main_Page en 1.0 8533729872.0
0.0 Main_Page en 1.0 8533729872.0
0.0 Main_Page en 1.0 8533729872.0
0.0 Manchester_United_F.C. en 1.0 20499776.0
0.0 Main_Page en 1.0 8533729872.0
0.0 Julian_Jackson_(boxer) en 1.0 4126800.0
0.0 Special:BlankPage en 1.0 942340592.0
0.0 Franz_Schmidt_(executioner) en 1.0 1514948.0
0.0 2016_North_Korean_nuclear_test en 1.0 27136680.0
0.0 Special:BlankPage en 1.0 942340592.0
0.0 Main_Page en 1.0 8533729872.0
0.0 Main_Page en 1.0 8533729872.0
0.0 Great_Wall_of_China en 1.0 6800699.0
0.0 Special:UserLogin en 1.0 1047123130.0
0.0 Sian_Blake en 1.0 12936061.0
0.0 Main_Page en 1.0 8533729872.0
0.0 Main_Page en 1.0 8533729872.0
0.0 Suits_(TV_series) en 1.0 8561224.0
0.0 Ddd en 1.0 56799834.0
0.0 Main_Page en 1.0 8533729872.0
0.0 Dolph_Lundgren en 1.0 8456790.0
0.0 Daredevil_(season_2) en 1.0 3658365.0
0.0 Main_Page en 1.0 8533729872.0
0.0 Main_Page en 1.0 8533729872.0
0.0 Main_Page en 1.0 8533729872.0
0.0 Main_Page en 1.0 8533729872.0
0.0 Main_Page en 1.0 8533729872.0
0.0 Main_Page en 1.0 8533729872.0
0.0 Main_Page en 1.0 8533729872.0
0.0 Special:BlankPage en 1.0 942340592.0
0.0 Main_Page en 1.0 8533729872.0
0.0 Main_Page en 1.0 8533729872.0
0.0 Special:BlankPage en 1.0 942340592.0
0.0 Main_Page en 1.0 8533729872.0
0.0 Main_Page en 1.0 8533729872.0
0.0 New_Year%27s_Eve_sexual_assaults_in_Germany en 1.0 29613078.0
0.0 Main_Page en 1.0 8533729872.0
0.0 Main_Page en 1.0 8533729872.0
0.0 Ashton_Kutcher en 1.0 4395980.0
0.0 Main_Page en 1.0 8533729872.0
0.0 The_Offspring en 1.0 17350799.0
0.0 Chichijima_incident en 1.0 156777745.0
0.0 Quentin_Tarantino_filmography en 1.0 1466584.0
0.0 Special:UserLogin en 1.0 1047123130.0
0.0 Main_Page en 1.0 8533729872.0
0.0 Main_Page en 1.0 8533729872.0
0.0 Buddhism en 1.0 18966829.0
0.0 Main_Page en 1.0 8533729872.0
0.0 Special:BlankPage en 1.0 942340592.0
0.0 Main_Page en 1.0 8533729872.0
0.0 Special:BlankPage en 1.0 942340592.0
0.0 Main_Page en 1.0 8533729872.0
0.0 Main_Page en 1.0 8533729872.0
0.0 Main_Page en 1.0 8533729872.0
0.0 Main_Page en 1.0 8533729872.0
0.0 Titanic_(1997_film) en 1.0 16588270.0
0.0 Main_Page en 1.0 8533729872.0
0.0 Special:BlankPage en 1.0 942340592.0
0.0 Main_Page en 1.0 8533729872.0
0.0 Boku_Dake_ga_Inai_Machi en 1.0 9358161.0
0.0 Main_Page en 1.0 8533729872.0
0.0 Main_Page en 1.0 8533729872.0
0.0 Switzerland en 1.0 29141959.0
0.0 Main_Page en 1.0 8533729872.0
0.0 Main_Page en 1.0 8533729872.0
0.0 Main_Page en 1.0 8533729872.0
0.0 Natural-born-citizen_clause en 1.0 9763855.0
0.0 Main_Page en 1.0 8533729872.0
0.0 Main_Page en 1.0 8533729872.0
0.0 Main_Page en 1.0 8533729872.0
0.0 Special:UserLogin en 1.0 1047123130.0
0.0 Ri_Sol-ju en 1.0 2311640.0
0.0 Main_Page en 1.0 8533729872.0
0.0 Main_Page en 1.0 8533729872.0
0.0 Main_Page en 1.0 8533729872.0
0.0 List_of_Girl_Meets_World_episodes en 1.0 4196325.0
0.0 Main_Page en 1.0 8533729872.0
0.0 Main_Page en 1.0 8533729872.0
0.0 Special:BlankPage en 1.0 942340592.0
0.0 Chichijima_incident en 1.0 156777745.0
0.0 Main_Page en 1.0 8533729872.0
0.0 List_of_highest-grossing_films en 1.0 167724226.0
0.0 Special:BlankPage en 1.0 942340592.0
0.0 Internet_Protocol en 1.0 16738151.0
0.0 Main_Page en 1.0 8533729872.0
0.0 Whiddy_Island_Disaster en 1.0 8423122.0
0.0 Renaissance en 1.0 11909151.0
0.0 Main_Page en 1.0 8533729872.0
0.0 Chichijima_incident en 1.0 156777745.0
0.0 Special:BlankPage en 1.0 942340592.0
0.0 Main_Page en 1.0 8533729872.0
0.0 Deadwood_(TV_series) en 1.0 3517628.0
0.0 Special:BlankPage en 1.0 942340592.0
0.0 Lycos en 1.0 10476017.0
0.0 Google en 1.0 74694473.0
0.0 Star_Wars:_The_Force_Awakens en 1.0 360319666.0
0.0 Portal:Contents en 1.0 9401880.0
0.0 Main_Page en 1.0 8533729872.0
0.0 Main_Page en 1.0 8533729872.0
0.0 Special:Watchlist en 1.0 76035929.0
0.0 Indian_elephant en 1.0 16392746.0
0.0 Domhnall_Gleeson en 1.0 6110724.0
0.0 Carrie_Fisher en 1.0 12708968.0
0.0 Pablo_Escobar en 1.0 16208686.0
0.0 Main_Page en 1.0 8533729872.0
0.0 Chichijima_incident en 1.0 156777745.0
0.0 Main_Page en 1.0 8533729872.0
0.0 Madarihat-Birpara_(community_development_block) en 1.0 9453269.0
0.0 Main_Page en 1.0 8533729872.0
0.0 Java_(programming_language) en 1.0 9701848.0
0.0 Main_Page en 1.0 8533729872.0
0.0 Special:Search en 1.0 108047570.0
0.0 Amazon.com en 1.0 37664898.0
0.0 Main_Page en 1.0 8533729872.0
0.0 Main_Page en 1.0 8533729872.0
0.0 Main_Page en 1.0 8533729872.0
0.0 Evan_Peters en 1.0 1947792.0
0.0 Main_Page en 1.0 8533729872.0
0.0 Main_Page en 1.0 8533729872.0
0.0 Stanford_University en 1.0 423477444.0
0.0 Main_Page en 1.0 8533729872.0
0.0 File:Evander_Holyfield_LA_2011.jpg en 1.0 175595651.0
0.0 Special:UserLogin en 1.0 1047123130.0
0.0 Jesus en 1.0 39877158.0
0.0 Main_Page en 1.0 8533729872.0
0.0 Main_Page en 1.0 8533729872.0
0.0 Main_Page en 1.0 8533729872.0
0.0 Main_Page en 1.0 8533729872.0
0.0 Main_Page en 1.0 8533729872.0
0.0 Main_Page en 1.0 8533729872.0
0.0 Main_Page en 1.0 8533729872.0
0.0 wiki/wiki/special:whatlinkshere/wiki/w/index.php en 1.0 3528070.0
0.0 Google en 1.0 74694473.0
0.0 Special:BlankPage en 1.0 942340592.0
0.0 Main_Page en 1.0 8533729872.0
0.0 Main_Page en 1.0 8533729872.0
0.0 Special:UserLogin en 1.0 1047123130.0
0.0 High-Rise_(novel) en 1.0 2359000.0
0.0 Special:UserLogin en 1.0 1047123130.0
0.0 Main_Page en 1.0 8533729872.0
0.0 Main_Page en 1.0 8533729872.0
0.0 Special:UserLogin en 1.0 1047123130.0
0.0 Main_Page en 1.0 8533729872.0
0.0 Main_Page en 1.0 8533729872.0
0.0 Kaya_Scodelario en 1.0 28010169.0
0.0 Special:PasswordReset en 1.0 736126.0
0.0 Main_Page en 1.0 8533729872.0
0.0 Main_Page en 1.0 8533729872.0
0.0 Demat_account en 1.0 174061131.0
0.0 Special:UserLogin en 1.0 1047123130.0
0.0 File:Evander_Holyfield_LA_2011.jpg en 1.0 175595651.0
0.0 Main_Page en 1.0 8533729872.0
0.0 Main_Page en 1.0 8533729872.0
0.0 Special:UserLogin en 1.0 1047123130.0
0.0 Chichijima_incident en 1.0 156777745.0
0.0 Vincent_van_Gogh en 1.0 11446570.0
0.0 Carbohydrate en 1.0 4537653.0
0.0 Main_Page en 1.0 8533729872.0
0.0 Boeing_747 en 1.0 9986446.0
0.0 Main_Page en 1.0 8533729872.0
0.0 List_of_collective_nouns_in_English en 1.0 54558.0
0.0 Main_Page en 1.0 8533729872.0
0.0 Global_Positioning_System en 1.0 15290779.0
0.0 List_of_DreamWorks_Dragons_episodes en 1.0 5383959.0
0.0 Main_Page en 1.0 8533729872.0
0.0 G-Eazy en 1.0 2783057.0
0.0 Dwight_D._Eisenhower en 1.0 21422730.0
0.0 Main_Page en 1.0 8533729872.0
0.0 Blackstar_(David_Bowie_album) en 1.0 16152081.0
0.0 Main_Page en 1.0 8533729872.0
0.0 Main_Page en 1.0 8533729872.0
0.0 Main_Page en 1.0 8533729872.0
0.0 Narendra_Modi en 1.0 35886245.0
0.0 Special:UserLogin en 1.0 1047123130.0
0.0 Main_Page en 1.0 8533729872.0
0.0 Main_Page en 1.0 8533729872.0
0.0 World_population en 1.0 38939636.0
0.0 The_Hunger_Games:_Mockingjay_%E2%80%93_Part_2 en 1.0 8699207.0
0.0 Raspberry_Pi en 1.0 13677798.0
0.0 Main_Page en 1.0 8533729872.0
0.0 Steven_Avery en 1.0 25258095.0
0.0 Ed_Sheeran en 1.0 7461751.0
0.0 Special:UserLogin en 1.0 1047123130.0
0.0 Main_Page en 1.0 8533729872.0
0.0 John_Boyega en 1.0 17504336.0
0.0 Main_Page en 1.0 8533729872.0
0.0 Special:UserLogin en 1.0 1047123130.0
0.0 Special:BlankPage en 1.0 942340592.0
0.0 China_Netcom en 1.0 16311194.0
0.0 Dilwale_(2015_film) en 1.0 24935892.0
0.0 Main_Page en 1.0 8533729872.0
0.0 Tom_Moore,_Jr. en 1.0 2879837.0
0.0 Artificial_intelligence en 1.0 18528949.0
0.0 Main_Page en 1.0 8533729872.0
0.0 F_Is_for_Family en 1.0 1662470.0
0.0 Google_Cardboard en 1.0 2901367.0
0.0 Chichijima_incident en 1.0 156777745.0
0.0 Main_Page en 1.0 8533729872.0
0.0 File:Donald_August_19_(cropped).jpg en 1.0 16354475.0
0.0 India en 1.0 125713628.0
0.0 Main_Page en 1.0 8533729872.0
0.0 Jackie_Chan en 1.0 12858908.0
0.0 Main_Page en 1.0 8533729872.0
0.0 Special:UserLogin en 1.0 1047123130.0
0.0 Special:UserLogin en 1.0 1047123130.0
0.0 Much_Ado_About_Nothing en 1.0 40783320.0
0.0 Main_Page en 1.0 8533729872.0
0.0 Irina_Shayk en 1.0 2790324.0
0.0 File:Golden_Globe_Trophy.jpg en 1.0 9956097.0
0.0 Main_Page en 1.0 8533729872.0
0.0 Main_Page en 1.0 8533729872.0
0.0 Main_Page en 1.0 8533729872.0
0.0 Special:BlankPage en 1.0 942340592.0
0.0 Main_Page en 1.0 8533729872.0
0.0 Making_a_Murderer en 1.0 33144160.0
0.0 Main_Page en 1.0 8533729872.0
0.0 Main_Page en 1.0 8533729872.0
0.0 Main_Page en 1.0 8533729872.0
0.0 Corrupted_Blood_incident en 1.0 20892406.0
0.0 Special:UserLogin en 1.0 1047123130.0
0.0 File:Matthew_Morrison_Peabody_2010_(cropped).jpg en 1.0 8598616.0
0.0 Chichijima_incident en 1.0 156777745.0
0.0 List_of_Sherlock_episodes en 1.0 9927121.0
0.0 Main_Page en 1.0 8533729872.0
0.0 File:Evander_Holyfield_LA_2011.jpg en 1.0 175595651.0
0.0 Special:UserLogin en 1.0 1047123130.0
0.0 Star_Wars en 1.0 136598327.0
0.0 Main_Page en 1.0 8533729872.0
0.0 Teri_Garr en 1.0 1154690.0
0.0 Main_Page en 1.0 8533729872.0
0.0 File:Michel_Platini_2010.jpg en 1.0 9570496.0
0.0 Akbar en 1.0 11047396.0
0.0 FOB_(shipping) en 1.0 1320225.0
0.0 Special:Search en 1.0 108047570.0
0.0 Special:UserLogin en 1.0 1047123130.0
0.0 Main_Page en 1.0 8533729872.0
0.0 Special:BlankPage en 1.0 942340592.0
0.0 Main_Page en 1.0 8533729872.0
0.0 Main_Page en 1.0 8533729872.0
0.0 Main_Page en 1.0 8533729872.0
0.0 Java_(programming_language) en 1.0 9701848.0
0.0 Main_Page en 1.0 8533729872.0
0.0 Special:Search en 1.0 108047570.0
0.0 Main_Page en 1.0 8533729872.0
0.0 Main_Page en 1.0 8533729872.0
0.0 File:Evander_Holyfield_LA_2011.jpg en 1.0 175595651.0
0.0 Main_Page en 1.0 8533729872.0
0.0 Main_Page en 1.0 8533729872.0
0.0 Main_Page en 1.0 8533729872.0
0.0 Special:BlankPage en 1.0 942340592.0
0.0 Main_Page en 1.0 8533729872.0
0.0 Special:Search en 1.0 108047570.0
0.0 Main_Page en 1.0 8533729872.0
0.0 Gigi_Hadid en 1.0 13273495.0
0.0 Main_Page en 1.0 8533729872.0
0.0 Special:Search en 1.0 108047570.0
0.0 Main_Page en 1.0 8533729872.0
0.0 Demat_account en 1.0 174061131.0
0.0 Special:BlankPage en 1.0 942340592.0
0.0 Main_Page en 1.0 8533729872.0
0.0 Main_Page en 1.0 8533729872.0
0.0 Special:BlankPage en 1.0 942340592.0
0.0 Main_Page en 1.0 8533729872.0
0.0 Special:UserLogin en 1.0 1047123130.0
0.0 Cara_Delevingne en 1.0 8396088.0
0.0 Main_Page en 1.0 8533729872.0
0.0 The_Blacklist_(season_3) en 1.0 6085539.0
0.0 Theodore_Roosevelt en 1.0 21559555.0
0.0 List_of_Marvel_Cinematic_Universe_films en 1.0 15920101.0
0.0 Main_Page en 1.0 8533729872.0
0.0 Index.php en 1.0 5377671.0
0.0 Baahubali:_The_Beginning en 1.0 7215391.0
0.0 Demat_account en 1.0 174061131.0
0.0 The_Shannara_Chronicles en 1.0 24672996.0
0.0 Main_Page en 1.0 8533729872.0
0.0 Graham_Chapman en 1.0 5650811.0
0.0 Special:BlankPage en 1.0 942340592.0
0.0 Main_Page en 1.0 8533729872.0
0.0 Main_Page en 1.0 8533729872.0
0.0 Main_Page en 1.0 8533729872.0
0.0 Christianity en 1.0 23012643.0
0.0 Main_Page en 1.0 8533729872.0
0.0 Main_Page en 1.0 8533729872.0
0.0 Special:BlankPage en 1.0 942340592.0
0.0 Main_Page en 1.0 8533729872.0
0.0 Main_Page en 1.0 8533729872.0
0.0 The_Big_Bang_Theory en 1.0 42550433.0
0.0 Angela_Merkel en 1.0 11247748.0
0.0 Special:BlankPage en 1.0 942340592.0
0.0 Main_Page en 1.0 8533729872.0
0.0 Main_Page en 1.0 8533729872.0
0.0 Main_Page en 1.0 8533729872.0
0.0 Java_(programming_language) en 1.0 9701848.0
0.0 Main_Page en 1.0 8533729872.0
0.0 Swami_Vivekananda en 1.0 28087252.0
0.0 HTTPS en 1.0 116491638.0
0.0 Special:Search en 1.0 108047570.0
0.0 Deaths_in_December_2015 en 1.0 9722006.0
0.0 Main_Page en 1.0 8533729872.0
0.0 Main_Page en 1.0 8533729872.0
0.0 Special:Search en 1.0 108047570.0
0.0 Wikipedia en 1.0 114702369.0
0.0 Main_Page en 1.0 8533729872.0
0.0 Main_Page en 1.0 8533729872.0
0.0 Main_Page en 1.0 8533729872.0
0.0 Web_scraping en 1.0 28358326.0
0.0 Diabetes_mellitus en 1.0 11599469.0
0.0 Main_Page en 1.0 8533729872.0
0.0 Constantine_(film) en 1.0 3698584.0
0.0 Ida_Gaskin en 1.0 1127111.0
0.0 Main_Page en 1.0 8533729872.0
0.0 Special:UserLogin en 1.0 1047123130.0
0.0 Main_Page en 1.0 8533729872.0
0.0 File:Kerry_Washington_Django_avp.jpg en 1.0 1849760.0
0.0 University_of_California,_San_Diego en 1.0 44503063.0
0.0 Main_Page en 1.0 8533729872.0
0.0 Main_Page en 1.0 8533729872.0
0.0 Main_Page en 1.0 8533729872.0
0.0 Firefox en 1.0 36683095.0
0.0 Main_Page en 1.0 8533729872.0
0.0 Gautama_Buddha en 1.0 13644336.0
0.0 Scrap en 1.0 7759155.0
0.0 Main_Page en 1.0 8533729872.0
0.0 Netflix en 1.0 169502962.0
0.0 Main_Page en 1.0 8533729872.0
0.0 Main_Page en 1.0 8533729872.0
0.0 Chichijima_incident en 1.0 156777745.0
0.0 Special:UserLogin en 1.0 1047123130.0
0.0 Java_(programming_language) en 1.0 9701848.0
0.0 Main_Page en 1.0 8533729872.0
0.0 Main_Page en 1.0 8533729872.0
0.0 Main_Page en 1.0 8533729872.0
0.0 Main_Page en 1.0 8533729872.0
0.0 Main_Page en 1.0 8533729872.0
0.0 Pok%C3%A9mon en 1.0 6576721.0
0.0 Main_Page en 1.0 8533729872.0
0.0 Main_Page en 1.0 8533729872.0
0.0 New_Zealand en 1.0 31665035.0
0.0 Special:UserLogin en 1.0 1047123130.0
0.0 Special:UserLogin en 1.0 1047123130.0
0.0 ThousandEyes en 1.0 1961097.0
0.0 Kok en 1.0 4864140.0
0.0 Main_Page en 1.0 8533729872.0
0.0 Main_Page en 1.0 8533729872.0
0.0 Mauro_Ranallo en 1.0 2838754.0
0.0 Barack_obama en 1.0 255717473.0
0.0 Main_Page en 1.0 8533729872.0
0.0 Main_Page en 1.0 8533729872.0
0.0 Main_Page en 1.0 8533729872.0
0.0 Main_Page en 1.0 8533729872.0
0.0 Main_Page en 1.0 8533729872.0
0.0 Main_Page en 1.0 8533729872.0
0.0 Main_Page en 1.0 8533729872.0
0.0 National_Security_Guard en 1.0 2832383.0
0.0 Main_Page en 1.0 8533729872.0
0.0 Main_Page en 1.0 8533729872.0
0.0 Leonardo_DiCaprio en 1.0 33724264.0
0.0 Main_Page en 1.0 8533729872.0
0.0 Royal_Rumble_(2016) en 1.0 8465848.0
0.0 Special:Search en 1.0 108047570.0
0.0 File:Chelsea_FC.svg en 1.0 4653436.0
0.0 YouTube en 1.0 70921797.0
0.0 Special:UserLogin en 1.0 1047123130.0
0.0 Special:BlankPage en 1.0 942340592.0
0.0 William_Gibson en 1.0 280778305.0
0.0 Special:UserLogin en 1.0 1047123130.0
0.0 Hinduism en 1.0 26287557.0
0.0 Supergirl_(U.S._TV_series) en 1.0 18117233.0
0.0 Demat_account en 1.0 174061131.0
0.0 Special:BlankPage en 1.0 942340592.0
0.0 Elementary_(TV_series) en 1.0 9423089.0
0.0 Main_Page en 1.0 8533729872.0
0.0 Main_Page en 1.0 8533729872.0
0.0 Main_Page en 1.0 8533729872.0
0.0 File:Evander_Holyfield_LA_2011.jpg en 1.0 175595651.0
0.0 Main_Page en 1.0 8533729872.0
0.0 Special:BlankPage en 1.0 942340592.0
0.0 Main_Page en 1.0 8533729872.0
0.0 Main_Page en 1.0 8533729872.0
0.0 Bobby_Fischer en 1.0 16263474.0
0.0 Breaking_Bad en 1.0 23848318.0
0.0 Cephalopod en 1.0 103351379.0
0.0 Kim_Jong-un en 1.0 55847144.0
0.0 Special:BlankPage en 1.0 942340592.0
0.0 Main_Page en 1.0 8533729872.0
0.0 Main_Page en 1.0 8533729872.0
0.0 Main_Page en 1.0 8533729872.0
0.0 Main_Page en 1.0 8533729872.0
0.0 Main_Page en 1.0 8533729872.0
0.0 Special:HideBanners en 1.0 0.0
0.0 Standard_RAID_levels en 1.0 2877749.0
0.0 Main_Page en 1.0 8533729872.0
0.0 Main_Page en 1.0 8533729872.0
0.0 Robert_Durst en 1.0 5907474.0
0.0 Antonov_An-32 en 1.0 14787770.0
0.0 Main_Page en 1.0 8533729872.0
0.0 Demat_account en 1.0 174061131.0
0.0 Charles_Darwin en 1.0 18486123.0
0.0 Main_Page en 1.0 8533729872.0
0.0 Main_Page en 1.0 8533729872.0
0.0 J._J._Abrams en 1.0 8322548.0
0.0 List_of_cetaceans en 1.0 38841438.0
0.0 Arsenal_F.C. en 1.0 12689262.0
0.0 Special:UserLogin en 1.0 1047123130.0
0.0 Java_(programming_language) en 1.0 9701848.0
0.0 Main_Page en 1.0 8533729872.0
0.0 Mexico en 1.0 42477951.0
0.0 Main_Page en 1.0 8533729872.0
0.0 File:Evander_Holyfield_LA_2011.jpg en 1.0 175595651.0
0.0 Main_Page en 1.0 8533729872.0
0.0 Main_Page en 1.0 8533729872.0
0.0 Main_Page en 1.0 8533729872.0
0.0 Chichijima_incident en 1.0 156777745.0
0.0 Main_Page en 1.0 8533729872.0
0.0 Special:BlankPage en 1.0 942340592.0
0.0 Special:UserLogin en 1.0 1047123130.0
0.0 Main_Page en 1.0 8533729872.0
0.0 Iron_Jacket en 1.0 6629539.0
0.0 List_of_Bollywood_films_of_2016 en 1.0 28421096.0
0.0 Main_Page en 1.0 8533729872.0
0.0 Psychopathy en 1.0 60498411.0
0.0 Main_Page en 1.0 8533729872.0
0.0 Thomas_Becket en 1.0 717677.0
0.0 2/14th_Battalion_(Australia) en 1.0 10041898.0
0.0 Main_Page en 1.0 8533729872.0
0.0 Main_Page en 1.0 8533729872.0
0.0 Deaths_in_2016 en 1.0 53894002.0
0.0 Scarlett_Johansson en 1.0 16822714.0
0.0 Main_Page en 1.0 8533729872.0
0.0 Main_Page en 1.0 8533729872.0
0.0 Special:Search en 1.0 108047570.0
0.0 Main_Page en 1.0 8533729872.0
0.0 File:Charlie_Hebdo_logo.svg en 1.0 12336839.0
0.0 Main_Page en 1.0 8533729872.0
0.0 Special:UserLogin en 1.0 1047123130.0
0.0 Bionade-Biedermeier en 1.0 6499182.0
0.0 Special:UserLogin en 1.0 1047123130.0
0.0 Main_Page en 1.0 8533729872.0
0.0 Main_Page en 1.0 8533729872.0
0.0 Main_Page en 1.0 8533729872.0
0.0 Main_Page en 1.0 8533729872.0
0.0 Main_Page en 1.0 8533729872.0
0.0 Bikini en 1.0 177244701.0
0.0 Cephalopod en 1.0 103351379.0
0.0 Main_Page en 1.0 8533729872.0
0.0 Main_Page en 1.0 8533729872.0
0.0 Berlin en 1.0 15533858.0
0.0 Main_Page en 1.0 8533729872.0
0.0 List_of_collective_nouns_in_English en 1.0 54558.0
0.0 Wazir_(film) en 1.0 28376882.0
0.0 Ben_Cohen_(rugby_union) en 1.0 3709370.0
0.0 North_Korea en 1.0 118851507.0
0.0 File:Evander_Holyfield_LA_2011.jpg en 1.0 175595651.0
0.0 Special:BlankPage en 1.0 942340592.0
0.0 West_Atlantic en 1.0 1168208.0
0.0 Special:UserLogin en 1.0 1047123130.0
0.0 Main_Page en 1.0 8533729872.0
0.0 Chris_Gayle en 1.0 7050436.0
0.0 Main_Page en 1.0 8533729872.0
0.0 Main_Page en 1.0 8533729872.0
0.0 Main_Page en 1.0 8533729872.0
0.0 Main_Page en 1.0 8533729872.0
0.0 Chichijima_incident en 1.0 156777745.0
0.0 Main_Page en 1.0 8533729872.0
0.0 List_of_Fairy_Tail_episodes en 1.0 7583834.0
0.0 Main_Page en 1.0 8533729872.0
0.0 American_Horror_Story:_Hotel en 1.0 31967284.0
0.0 Main_Page en 1.0 8533729872.0
0.0 Alison_Brie en 1.0 2695368.0
0.0 Rafael_dos_Anjos en 1.0 16916167.0
0.0 Special:BlankPage en 1.0 942340592.0
0.0 Main_Page en 1.0 8533729872.0
0.0 Main_Page en 1.0 8533729872.0
0.0 Main_Page en 1.0 8533729872.0
0.0 Main_Page en 1.0 8533729872.0
0.0 Main_Page en 1.0 8533729872.0
0.0 Main_Page en 1.0 8533729872.0
0.0 Main_Page en 1.0 8533729872.0
0.0 Main_Page en 1.0 8533729872.0
0.0 Talia_Shire en 1.0 2217873.0
0.0 Master_of_None en 1.0 2981908.0
0.0 Main_Page en 1.0 8533729872.0
0.0 Special:UserLogin en 1.0 1047123130.0
0.0 David_Bowie en 1.0 103675600.0
0.0 Main_Page en 1.0 8533729872.0
0.0 Main_Page en 1.0 8533729872.0
0.0 DevOps en 1.0 2221006.0
0.0 Rocky_(film_series) en 1.0 2012105.0
0.0 File:Evander_Holyfield_LA_2011.jpg en 1.0 175595651.0
0.0 Main_Page en 1.0 8533729872.0
0.0 Main_Page en 1.0 8533729872.0
0.0 Special:BlankPage en 1.0 942340592.0
0.0 Main_Page en 1.0 8533729872.0
0.0 Main_Page en 1.0 8533729872.0
0.0 Normal_distribution en 1.0 15311637.0
0.0 Rocky_Balboa_(film) en 1.0 5685535.0
0.0 File:David_Cameron_official.jpg en 1.0 4932213.0
0.0 Special:UserLogin en 1.0 1047123130.0
0.0 Samurai en 1.0 5290473.0
0.0 Main_Page en 1.0 8533729872.0
0.0 Main_Page en 1.0 8533729872.0
0.0 Main_Page en 1.0 8533729872.0
0.0 Main_Page en 1.0 8533729872.0
0.0 Mr._Bean en 1.0 4456680.0
0.0 Main_Page en 1.0 8533729872.0
0.0 Hail,_Caesar! en 1.0 3201335.0
0.0 Colony_(TV_series) en 1.0 2748793.0
0.0 Main_Page en 1.0 8533729872.0
0.0 Special:BlankPage en 1.0 942340592.0
0.0 Freddie_Mercury en 1.0 12446504.0
0.0 Main_Page en 1.0 8533729872.0
0.0 Main_Page en 1.0 8533729872.0
0.0 Main_Page en 1.0 8533729872.0
0.0 Main_Page en 1.0 8533729872.0
0.0 Main_Page en 1.0 8533729872.0
0.0 British_Empire en 1.0 11057744.0
0.0 Main_Page en 1.0 8533729872.0
0.0 Narcos en 1.0 6176010.0
0.0 David_Bowie en 1.0 103675600.0
0.0 Main_Page en 1.0 8533729872.0
0.0 Main_Page en 1.0 8533729872.0
0.0 Special:BlankPage en 1.0 942340592.0
0.0 Main_Page en 1.0 8533729872.0
0.0 Corrupted_Blood_incident en 1.0 20892406.0
0.0 United_Arab_Emirates en 1.0 37034017.0
0.0 Main_Page en 1.0 8533729872.0
0.0 Main_Page en 1.0 8533729872.0
0.0 Jenna_Dewan en 1.0 24310477.0
0.0 Spotlight_(film) en 1.0 6178394.0
0.0 Chichijima_incident en 1.0 156777745.0
0.0 Special:Search en 1.0 108047570.0
0.0 Main_Page en 1.0 8533729872.0
0.0 List_of_Steven_Universe_episodes en 1.0 46549233.0
0.0 2016_Pathankot_attack en 1.0 22086189.0
0.0 Priyanka_Chopra en 1.0 37867289.0
0.0 Main_Page en 1.0 8533729872.0
0.0 Main_Page en 1.0 8533729872.0
0.0 Slash_(musician) en 1.0 12712453.0
0.0 Main_Page en 1.0 8533729872.0
0.0 Special:BlankPage en 1.0 942340592.0
0.0 Main_Page en 1.0 8533729872.0
0.0 Main_Page en 1.0 8533729872.0
0.0 Special:UserLogin en 1.0 1047123130.0
0.0 Special:HideBanners en 1.0 0.0
0.0 Main_Page en 1.0 8533729872.0
0.0 Main_Page en 1.0 8533729872.0
0.0 Kylo_Ren en 1.0 16742312.0
0.0 Main_Page en 1.0 8533729872.0
0.0 Corrupted_Blood_incident en 1.0 20892406.0
0.0 Special:BlankPage en 1.0 942340592.0
0.0 Main_Page en 1.0 8533729872.0
0.0 Special:Search en 1.0 108047570.0
0.0 Main_Page en 1.0 8533729872.0
0.0 Melissa_McCarthy en 1.0 4426528.0
0.0 List_of_iZombie_episodes en 1.0 2964776.0
0.0 Special:UserLogin en 1.0 1047123130.0
0.0 Special:BlankPage en 1.0 942340592.0
0.0 Main_Page en 1.0 8533729872.0
0.0 Monica_Lewinsky en 1.0 3961607.0
0.0 The_Shannara_Chronicles en 1.0 24672996.0
0.0 Jake_Lloyd en 1.0 3496513.0
0.0 Alibaba_Group en 1.0 4667423.0
0.0 Outlander_(TV_series) en 1.0 5744310.0
0.0 Main_Page en 1.0 8533729872.0
0.0 List_of_Bollywood_films_of_2016 en 1.0 28421096.0
0.0 Main_Page en 1.0 8533729872.0
0.0 Main_Page en 1.0 8533729872.0
0.0 Chichijima_incident en 1.0 156777745.0
0.0 Main_Page en 1.0 8533729872.0
0.0 Portal:Contents en 1.0 9401880.0
0.0 Special:BlankPage en 1.0 942340592.0
0.0 Main_Page en 1.0 8533729872.0
0.0 Stephen_King en 1.0 27234741.0
0.0 Main_Page en 1.0 8533729872.0
0.0 Main_Page en 1.0 8533729872.0
0.0 Main_Page en 1.0 8533729872.0
0.0 Main_Page en 1.0 8533729872.0
0.0 Special:UserLogin en 1.0 1047123130.0
0.0 Special:BlankPage en 1.0 942340592.0
0.0 Main_Page en 1.0 8533729872.0
0.0 File:Tim_Cook_WWDC_2012.jpg en 1.0 1356843.0
0.0 Saint_Helena en 1.0 15008718.0
0.0 Special:BlankPage en 1.0 942340592.0
0.0 Main_Page en 1.0 8533729872.0
0.0 Special:RecentChanges en 1.0 21739539.0
0.0 Main_Page_Test en 1.0 11265889.0
0.0 List_of_banks_in_India en 1.0 3655220.0
0.0 Main_Page en 1.0 8533729872.0
0.0 Main_Page en 1.0 8533729872.0
0.0 IZombie_(TV_series) en 1.0 3328604.0
0.0 Main_Page en 1.0 8533729872.0
0.0 Main_Page en 1.0 8533729872.0
0.0 Main_Page en 1.0 8533729872.0
0.0 Main_Page en 1.0 8533729872.0
0.0 Chichijima_incident en 1.0 156777745.0
0.0 Star_Wars:_The_Force_Awakens en 1.0 360319666.0
0.0 Main_Page en 1.0 8533729872.0
0.0 Rihanna en 1.0 19215696.0
0.0 Main_Page en 1.0 8533729872.0
0.0 Special:UserLogin en 1.0 1047123130.0
0.0 Main_Page en 1.0 8533729872.0
0.0 Main_Page en 1.0 8533729872.0
0.0 Ray_Liotta en 1.0 5229864.0
0.0 Main_Page en 1.0 8533729872.0
0.0 The_Vampire_Diaries_(season_7) en 1.0 2850448.0
0.0 Main_Page en 1.0 8533729872.0
0.0 List_of_Castle_episodes en 1.0 13290543.0
0.0 Main_Page en 1.0 8533729872.0
0.0 Main_Page en 1.0 8533729872.0
0.0 List_of_UFC_events en 1.0 49434449.0
0.0 Hillary_Clinton_presidential_campaign,_2016 en 1.0 1013768180.0
0.0 Special:BlankPage en 1.0 942340592.0
0.0 Demat_account en 1.0 174061131.0
0.0 Main_Page en 1.0 8533729872.0
0.0 Main_Page en 1.0 8533729872.0
0.0 Main_Page en 1.0 8533729872.0
0.0 Main_Page en 1.0 8533729872.0
0.0 Special:UserLogin en 1.0 1047123130.0
0.0 Special:BlankPage en 1.0 942340592.0
0.0 Special:BlankPage en 1.0 942340592.0
0.0 Main_Page en 1.0 8533729872.0
0.0 Main_Page en 1.0 8533729872.0
0.0 Special:UserLogin en 1.0 1047123130.0
0.0 Main_Page en 1.0 8533729872.0
0.0 Main_Page en 1.0 8533729872.0
0.0 Main_Page en 1.0 8533729872.0
0.0 Main_Page en 1.0 8533729872.0
0.0 Main_Page en 1.0 8533729872.0
0.0 Main_Page en 1.0 8533729872.0
0.0 Jennifer_Jason_Leigh en 1.0 24934592.0
0.0 Main_Page en 1.0 8533729872.0
0.0 Operation_Auca en 1.0 15045086.0
0.0 Main_Page en 1.0 8533729872.0
0.0 Nuclear_weapon en 1.0 15270268.0
0.0 Main_Page en 1.0 8533729872.0
0.0 Main_Page en 1.0 8533729872.0
0.0 Main_Page en 1.0 8533729872.0
0.0 Main_Page en 1.0 8533729872.0
0.0 Jonathan_(tortoise) en 1.0 2057765.0
0.0 Aditi_Rao_Hydari en 1.0 4059681.0
0.0 Main_Page en 1.0 8533729872.0
0.0 Chichijima_incident en 1.0 156777745.0
0.0 File:Evander_Holyfield_LA_2011.jpg en 1.0 175595651.0
0.0 Chichijima_incident en 1.0 156777745.0
0.0 Demat_account en 1.0 174061131.0
0.0 A._P._J._Abdul_Kalam en 1.0 20910533.0
0.0 Main_Page en 1.0 8533729872.0
0.0 Special:Search en 1.0 108047570.0
0.0 Main_Page en 1.0 8533729872.0
0.0 Main_Page en 1.0 8533729872.0
0.0 Special:BlankPage en 1.0 942340592.0
0.0 Special:BlankPage en 1.0 942340592.0
0.0 Main_Page en 1.0 8533729872.0
0.0 Mahatma_Gandhi en 1.0 49147085.0
0.0 Special:UserLogin en 1.0 1047123130.0
0.0 Value_object en 1.0 555629.0
0.0 Main_Page en 1.0 8533729872.0
0.0 Main_Page en 1.0 8533729872.0
0.0 Special:BlankPage en 1.0 942340592.0
0.0 Main_Page en 1.0 8533729872.0
0.0 .rss en 1.0 49554765.0
0.0 Main_Page en 1.0 8533729872.0
0.0 Main_Page en 1.0 8533729872.0
0.0 50_Cent en 1.0 8254573.0
0.0 Main_Page en 1.0 8533729872.0
0.0 Main_Page en 1.0 8533729872.0
0.0 Nayantara en 1.0 3539131.0
0.0 Main_Page en 1.0 8533729872.0
0.0 Main_Page en 1.0 8533729872.0
0.0 Main_Page en 1.0 8533729872.0
0.0 Special:Search en 1.0 108047570.0
0.0 Main_Page en 1.0 8533729872.0
0.0 Main_Page en 1.0 8533729872.0
0.0 Virtual_private_network en 1.0 4563511.0
0.0 Special:BlankPage en 1.0 942340592.0
0.0 Bikini en 1.0 177244701.0
0.0 Audrey_Hepburn en 1.0 8362390.0
0.0 Main_Page en 1.0 8533729872.0
0.0 Main_Page en 1.0 8533729872.0
0.0 Main_Page en 1.0 8533729872.0
0.0 The_Revenant_(2015_film) en 1.0 59359352.0
0.0 Main_Page en 1.0 8533729872.0
0.0 Main_Page en 1.0 8533729872.0
0.0 Main_Page en 1.0 8533729872.0
0.0 Star_Wars_sequel_trilogy en 1.0 14648840.0
0.0 Main_Page en 1.0 8533729872.0
0.0 Main_Page en 1.0 8533729872.0
0.0 File:Evander_Holyfield_LA_2011.jpg en 1.0 175595651.0
0.0 Special:UserLogin en 1.0 1047123130.0
0.0 Eternity_II_puzzle en 1.0 41705811.0
0.0 Andy_Milonakis en 1.0 2061496.0
0.0 New_Year%27s_Eve_sexual_assaults_in_Germany en 1.0 29613078.0
0.0 List_of_James_Bond_films en 1.0 7152541.0
0.0 Main_Page en 1.0 8533729872.0
0.0 Star_Wars_canon en 1.0 2544478.0
0.0 Web_scraping en 1.0 28358326.0
0.0 Main_Page en 1.0 8533729872.0
0.0 Web_scraping en 1.0 28358326.0
0.0 Lipid en 1.0 7213006.0
0.0 UFC_Fight_Night:_Cerrone_vs._Means en 1.0 4159601.0
0.0 Main_Page en 1.0 8533729872.0
0.0 Main_Page en 1.0 8533729872.0
0.0 Special:BlankPage en 1.0 942340592.0
0.0 Special:BlankPage en 1.0 942340592.0
0.0 Deaths_in_2016 en 1.0 53894002.0
0.0 Shannara en 1.0 7677775.0
0.0 Main_Page en 1.0 8533729872.0
0.0 Mr._Robot_(TV_series) en 1.0 13397615.0
0.0 Demat_account en 1.0 174061131.0
0.0 Main_Page en 1.0 8533729872.0
0.0 Dan_Bilzerian en 1.0 4324926.0
0.0 List_of_Hindi_film_clans en 1.0 5970904.0
0.0 Mauritius en 1.0 20347831.0
0.0 Star_Trek en 1.0 7531688.0
0.0 Main_Page en 1.0 8533729872.0
0.0 Main_Page en 1.0 8533729872.0
0.0 Main_Page en 1.0 8533729872.0
0.0 Special:UserLogin en 1.0 1047123130.0
0.0 Main_Page en 1.0 8533729872.0
0.0 Main_Page en 1.0 8533729872.0
0.0 Tom_Hanks en 1.0 9752340.0
0.0 Web_scraping en 1.0 28358326.0
0.0 Main_Page en 1.0 8533729872.0
0.0 Main_Page en 1.0 8533729872.0
0.0 Main_Page en 1.0 8533729872.0
0.0 73rd_Golden_Globe_Awards en 1.0 7194498.0
0.0 Main_Page en 1.0 8533729872.0
0.0 Main_Page en 1.0 8533729872.0
0.0 Main_Page en 1.0 8533729872.0
0.0 Vladimir_Putin en 1.0 34400182.0
0.0 Main_Page en 1.0 8533729872.0
0.0 Main_Page en 1.0 8533729872.0
0.0 Main_Page en 1.0 8533729872.0
0.0 Main_Page en 1.0 8533729872.0
0.0 Main_Page en 1.0 8533729872.0
0.0 Web_scraping en 1.0 28358326.0
0.0 Special:BlankPage en 1.0 942340592.0
0.0 Main_Page en 1.0 8533729872.0
0.0 Special:BlankPage en 1.0 942340592.0
0.0 Special:BlankPage en 1.0 942340592.0
0.0 File:Jeremy_Hunt_Official.jpg en 1.0 1145664.0
0.0 Mr._Robot_(TV_series) en 1.0 13397615.0
0.0 Web_scraping en 1.0 28358326.0
0.0 File:Joe_Paterno_-_Penn_State_-_Outback_Bowl_pep_rally_123110_cropped.jpg en 1.0 1730694.0
0.0 Main_Page en 1.0 8533729872.0
0.0 Main_Page en 1.0 8533729872.0
0.0 Charles,_Prince_of_Wales en 1.0 14027394.0
0.0 Main_Page en 1.0 8533729872.0
0.0 Special:BlankPage en 1.0 942340592.0
0.0 Main_Page en 1.0 8533729872.0
0.0 Special:UserLogin en 1.0 1047123130.0
0.0 Main_Page en 1.0 8533729872.0
0.0 Main_Page en 1.0 8533729872.0
0.0 Main_Page en 1.0 8533729872.0
0.0 Hayao_Miyazaki en 1.0 15754093.0
0.0 Main_Page en 1.0 8533729872.0
0.0 New_Girl en 1.0 11251715.0
0.0 Web_scraping en 1.0 28358326.0
0.0 Main_Page en 1.0 8533729872.0
0.0 Chichijima_incident en 1.0 156777745.0
0.0 Special:BlankPage en 1.0 942340592.0
0.0 Main_Page en 1.0 8533729872.0
0.0 Main_Page en 1.0 8533729872.0
0.0 Anomalisa en 1.0 2614178.0
0.0 Thomas_Becket en 1.0 717677.0
0.0 File:Wall_Street_Journal_28April2008.jpg en 1.0 3691800.0
0.0 Main_Page en 1.0 8533729872.0
0.0 Avengers:_Age_of_Ultron en 1.0 18647037.0
0.0 Chichijima_incident en 1.0 156777745.0
0.0 The_Girl_Who_Loved_Tom_Gordon en 1.0 4494233.0
0.0 Special:Search en 1.0 108047570.0
0.0 Chichijima_incident en 1.0 156777745.0
0.0 Main_Page en 1.0 8533729872.0
0.0 Main_Page en 1.0 8533729872.0
0.0 Demat_account en 1.0 174061131.0
0.0 Special:UserLogin en 1.0 1047123130.0
0.0 Main_Page en 1.0 8533729872.0
0.0 Amy_Schumer en 1.0 4177357.0
0.0 Main_Page en 1.0 8533729872.0
0.0 Main_Page en 1.0 8533729872.0
0.0 Nickelback en 1.0 4793223.0
0.0 E-commerce en 1.0 6666324.0
0.0 Special:BlankPage en 1.0 942340592.0
0.0 Main_Page en 1.0 8533729872.0
0.0 Main_Page en 1.0 8533729872.0
0.0 Special:BlankPage en 1.0 942340592.0
0.0 Special:UserLogin en 1.0 1047123130.0
0.0 Main_Page en 1.0 8533729872.0
0.0 Maze_Runner:_The_Scorch_Trials en 1.0 3953181.0
0.0 Main_Page en 1.0 8533729872.0
0.0 Training_Day en 1.0 2255134.0
0.0 Main_Page en 1.0 8533729872.0
0.0 Main_Page en 1.0 8533729872.0
0.0 Lauren_Cohan en 1.0 2211985.0
0.0 Spider_silk en 1.0 28220925.0
0.0 HDMI en 1.0 13707179.0
0.0 Hyperloop en 1.0 4935314.0
0.0 Main_Page en 1.0 8533729872.0
0.0 List_of_largest_companies_by_revenue en 1.0 2369334.0
0.0 Special:BlankPage en 1.0 942340592.0
0.0 Special:BlankPage en 1.0 942340592.0
0.0 Main_Page en 1.0 8533729872.0
0.0 Main_Page en 1.0 8533729872.0
0.0 Indira_Gandhi en 1.0 9817495.0
0.0 Dakota_Johnson en 1.0 7194037.0
0.0 Main_Page en 1.0 8533729872.0
0.0 Special:Search en 1.0 108047570.0
0.0 File:Evander_Holyfield_LA_2011.jpg en 1.0 175595651.0
0.0 Demat_account en 1.0 174061131.0
0.0 India en 1.0 125713628.0
0.0 The_Man_in_the_High_Castle_(TV_series) en 1.0 7716649.0
0.0 Kylie_Jenner en 1.0 5263842.0
0.0 Demat_account en 1.0 174061131.0
0.0 Main_Page en 1.0 8533729872.0
0.0 Main_Page en 1.0 8533729872.0
0.0 Hamzeh_Naghdi en 1.0 1197475.0
0.0 Main_Page en 1.0 8533729872.0
0.0 Special:Export en 1.0 10264333.0
0.0 List_of_American_Horror_Story_episodes en 1.0 4657333.0
0.0 Yolanda_Foster en 1.0 1761867.0
0.0 2016_Summer_Olympics en 1.0 22301767.0
0.0 Main_Page en 1.0 8533729872.0
0.0 Hate_Story_3 en 1.0 2744957.0
0.0 Main_Page en 1.0 8533729872.0
0.0 Special:UserLogin en 1.0 1047123130.0
0.0 Main_Page en 1.0 8533729872.0
0.0 Special:Search en 1.0 108047570.0
0.0 Main_Page en 1.0 8533729872.0
0.0 Main_Page en 1.0 8533729872.0
0.0 Elvis_Presley en 1.0 66604244.0
0.0 Arnold_Schwarzenegger en 1.0 20865901.0
0.0 Main_Page en 1.0 8533729872.0
0.0 Main_Page en 1.0 8533729872.0
0.0 Special:UserLogin en 1.0 1047123130.0
0.0 Main_Page en 1.0 8533729872.0
0.0 Lego en 1.0 5934298.0
0.0 Netflix en 1.0 169502962.0
0.0 Main_Page en 1.0 8533729872.0
0.0 Main_Page en 1.0 8533729872.0
0.0 Main_Page en 1.0 8533729872.0
0.0 Main_Page en 1.0 8533729872.0
0.0 Special:Search en 1.0 108047570.0
0.0 Special:UserLogin en 1.0 1047123130.0
0.0 List_of_The_Big_Bang_Theory_episodes en 1.0 46964178.0
0.0 Main_Page en 1.0 8533729872.0
0.0 Main_Page en 1.0 8533729872.0
0.0 Apple_Inc. en 1.0 32379646.0
0.0 Main_Page en 1.0 8533729872.0
0.0 1990_airlift_of_Indians_from_Kuwait en 1.0 1254592.0
0.0 Special:UserLogin en 1.0 1047123130.0
0.0 Main_Page en 1.0 8533729872.0
0.0 Main_Page en 1.0 8533729872.0
0.0 Sandy_Hook_Elementary_School_shooting en 1.0 20843081.0
0.0 John_Abraham_(actor) en 1.0 2783616.0
0.0 Main_Page en 1.0 8533729872.0
0.0 Monaco en 1.0 17037682.0
0.0 Heroes_Reborn_(miniseries) en 1.0 20334182.0
0.0 File:Evander_Holyfield_LA_2011.jpg en 1.0 175595651.0
0.0 Main_Page en 1.0 8533729872.0
0.0 Special:BlankPage en 1.0 942340592.0
0.0 List_of_Bollywood_films_of_2015 en 1.0 33642693.0
0.0 Spider_silk en 1.0 28220925.0
0.0 Main_Page en 1.0 8533729872.0
0.0 Main_Page en 1.0 8533729872.0
0.0 Main_Page en 1.0 8533729872.0
0.0 Main_Page en 1.0 8533729872.0
0.0 Cologne en 1.0 12990375.0
0.0 Main_Page en 1.0 8533729872.0
0.0 The_Sea_of_Trees en 1.0 2683553.0
0.0 Antivirus_software en 1.0 62372540.0
0.0 Main_Page en 1.0 8533729872.0
0.0 Main_Page en 1.0 8533729872.0
0.0 L%C3%A9a_Seydoux en 1.0 4066289.0
0.0 List_of_Presidents_of_the_United_States en 1.0 11478839.0
0.0 Main_Page en 1.0 8533729872.0
0.0 Demat_account en 1.0 174061131.0
0.0 HTTP_403 en 1.0 4654466.0
0.0 Main_Page en 1.0 8533729872.0
0.0 Demat_account en 1.0 174061131.0
0.0 Main_Page en 1.0 8533729872.0
0.0 Main_Page en 1.0 8533729872.0
0.0 Main_Page en 1.0 8533729872.0
0.0 Main_Page en 1.0 8533729872.0
0.0 Main_Page en 1.0 8533729872.0
0.0 Main_Page en 1.0 8533729872.0
0.0 Main_Page en 1.0 8533729872.0
0.0 Spider_silk en 1.0 28220925.0
0.0 2015_Metro_Manila_Film_Festival en 1.0 3791148.0
0.0 Main_Page en 1.0 8533729872.0
0.0 Web_scraping en 1.0 28358326.0
0.0 Main_Page en 1.0 8533729872.0
0.0 Vikings_(TV_series) en 1.0 5763416.0
0.0 Main_Page en 1.0 8533729872.0
0.0 Hayden_Christensen en 1.0 6562614.0
0.0 Special:Search en 1.0 108047570.0
0.0 Main_Page en 1.0 8533729872.0
0.0 Main_Page en 1.0 8533729872.0
0.0 Adventure_Time_(season_7) en 1.0 4200041.0
0.0 Main_Page en 1.0 8533729872.0
0.0 Tuberculosis en 1.0 12335459.0
0.0 Twenty_One_Pilots en 1.0 4607513.0
0.0 Andrea_Barber en 1.0 1329996.0
0.0 Main_Page en 1.0 8533729872.0
0.0 Main_Page en 1.0 8533729872.0
0.0 Special:Search en 1.0 108047570.0
0.0 Special:BlankPage en 1.0 942340592.0
0.0 Main_Page en 1.0 8533729872.0
0.0 Manu_Bennett en 1.0 2946647.0
0.0 File:Evander_Holyfield_LA_2011.jpg en 1.0 175595651.0
0.0 John_Boyega en 1.0 17504336.0
0.0 Main_Page en 1.0 8533729872.0
0.0 Main_Page en 1.0 8533729872.0
0.0 Main_Page en 1.0 8533729872.0
0.0 Web_scraping en 1.0 28358326.0
0.0 The_Flash_(2014_TV_series) en 1.0 18286807.0
0.0 Main_Page en 1.0 8533729872.0
0.0 File:Skater_Tony_Hawk.jpg en 1.0 1257984.0
0.0 Chichijima_incident en 1.0 156777745.0
0.0 Bangladesh en 1.0 29771986.0
0.0 Main_Page en 1.0 8533729872.0
0.0 Main_Page en 1.0 8533729872.0
0.0 Special:UserLogin en 1.0 1047123130.0
0.0 Main_Page en 1.0 8533729872.0
0.0 Special:BlankPage en 1.0 942340592.0
0.0 Chichijima_incident en 1.0 156777745.0
0.0 Main_Page en 1.0 8533729872.0
0.0 Special:BlankPage en 1.0 942340592.0
0.0 Special:UserLogin en 1.0 1047123130.0
0.0 Special:BlankPage en 1.0 942340592.0
0.0 File:Donald_August_19_(cropped).jpg en 1.0 16354475.0
0.0 Main_Page en 1.0 8533729872.0
0.0 Main_Page en 1.0 8533729872.0
0.0 2014_FIFA_World_Cup en 1.0 9111906.0
0.0 File:2013-0222-LVCC.jpg en 1.0 1245184.0
0.0 Main_Page en 1.0 8533729872.0
0.0 Main_Page en 1.0 8533729872.0
0.0 Special:UserLogin en 1.0 1047123130.0
0.0 List_of_One-Punch_Man_episodes en 1.0 3867219.0
0.0 Main_Page en 1.0 8533729872.0
0.0 File:New_York_Red_Bulls_logo.svg en 1.0 1038800.0
0.0 Anna_Faris en 1.0 5519202.0
0.0 Main_Page en 1.0 8533729872.0
0.0 Main_Page en 1.0 8533729872.0
0.0 Mark_Wahlberg en 1.0 8295916.0
0.0 Main_Page en 1.0 8533729872.0
0.0 Special:BlankPage en 1.0 942340592.0
0.0 Main_Page en 1.0 8533729872.0
0.0 Special:UserLogin en 1.0 1047123130.0
0.0 Java_(programming_language) en 1.0 9701848.0
0.0 File:Evander_Holyfield_LA_2011.jpg en 1.0 175595651.0
0.0 List_of_The_Simpsons_episodes en 1.0 18657349.0
0.0 Special:Watchlist en 1.0 76035929.0
0.0 Main_Page en 1.0 8533729872.0
0.0 Special:BlankPage en 1.0 942340592.0
0.0 Purple_Man en 1.0 2258079.0
0.0 Special:Search en 1.0 108047570.0
0.0 Main_Page en 1.0 8533729872.0
0.0 German_Moreno en 1.0 14611541.0
0.0 Main_Page en 1.0 8533729872.0
0.0 Special:UserLogin en 1.0 1047123130.0
0.0 Main_Page en 1.0 8533729872.0
0.0 Barack_obama en 1.0 255717473.0
0.0 Main_Page en 1.0 8533729872.0
0.0 Alexis_Texas en 1.0 3908343.0
0.0 Special:UserLogin en 1.0 1047123130.0
0.0 Main_Page en 1.0 8533729872.0
0.0 Main_Page en 1.0 8533729872.0
0.0 Special:UserLogin en 1.0 1047123130.0
0.0 Main_Page en 1.0 8533729872.0
0.0 List_of_rock_formations en 1.0 2214969.0
0.0 Demat_account en 1.0 174061131.0
0.0 Main_Page en 1.0 8533729872.0
0.0 Chichijima_incident en 1.0 156777745.0
0.0 Demat_account en 1.0 174061131.0
0.0 YouTube en 1.0 70921797.0
0.0 Main_Page en 1.0 8533729872.0
0.0 Dog en 1.0 12502336.0
0.0 Main_Page en 1.0 8533729872.0
0.0 Main_Page en 1.0 8533729872.0
0.0 Main_Page en 1.0 8533729872.0
0.0 Special:HideBanners en 1.0 0.0
0.0 Tom_Coughlin en 1.0 6394530.0
0.0 Wonders_of_the_World en 1.0 4285742.0
0.0 Main_Page en 1.0 8533729872.0
0.0 Special:MyTalk en 1.0 3614150.0
0.0 Main_Page en 1.0 8533729872.0
0.0 Lip_Sync_Battle en 1.0 17720380.0
0.0 Madarihat-Birpara_(community_development_block) en 1.0 9453269.0
0.0 UFC_196 en 1.0 5191146.0
0.0 IP_address en 1.0 4820374.0
0.0 Natural_disaster en 1.0 3085909.0
0.0 Main_Page en 1.0 8533729872.0
0.0 Nelson_Mandela en 1.0 15334205.0
0.0 File:Sharon_Osbourne_2,_2012.jpg en 1.0 1566741.0
0.0 Main_Page en 1.0 8533729872.0
0.0 File:Herman_Melville.jpg en 1.0 5173080.0
0.0 Special:BlankPage en 1.0 942340592.0
0.0 Category:All_articles_needing_coordinates en 1.0 4180902.0
0.0 Special:UserLogin en 1.0 1047123130.0
0.0 George_H._W._Bush en 1.0 221410448.0
0.0 Natalie_Portman en 1.0 16852354.0
0.0 Sherlock_(TV_series) en 1.0 46371239.0
0.0 File:Roberto_Luongo_maskless.jpg en 1.0 1856624.0
0.0 Main_Page en 1.0 8533729872.0
0.0 Main_Page en 1.0 8533729872.0
0.0 Special:BlankPage en 1.0 942340592.0
0.0 Web_scraping en 1.0 28358326.0
0.0 Main_Page en 1.0 8533729872.0
0.0 Fascism en 1.0 11511796.0
0.0 File:Evander_Holyfield_LA_2011.jpg en 1.0 175595651.0
0.0 Adele en 1.0 55900581.0
0.0 Wazir_(film) en 1.0 28376882.0
0.0 Jennifer_Jason_Leigh en 1.0 24934592.0
0.0 Main_Page en 1.0 8533729872.0
0.0 Chinese_New_Year en 1.0 16112558.0
0.0 Main_Page en 1.0 8533729872.0
0.0 Main_Page en 1.0 8533729872.0
0.0 Main_Page en 1.0 8533729872.0
0.0 Cthulhu en 1.0 2747499.0
0.0 List_of_The_Blacklist_episodes en 1.0 14007009.0
0.0 Kokoda_Track_campaign en 1.0 45527185.0
0.0 Main_Page en 1.0 8533729872.0
0.0 Daniel_Radcliffe en 1.0 7022855.0
0.0 Main_Page en 1.0 8533729872.0
0.0 Main_Page en 1.0 8533729872.0
0.0 Special:BlankPage en 1.0 942340592.0
0.0 Main_Page en 1.0 8533729872.0
0.0 Special:BlankPage en 1.0 942340592.0
0.0 Shameless_(U.S._TV_series) en 1.0 6231957.0
0.0 Cephalopod en 1.0 103351379.0
0.0 Australia en 1.0 52818274.0
0.0 Bikini en 1.0 177244701.0
0.0 Special:Search en 1.0 108047570.0
0.0 John_Lennon en 1.0 17611233.0
0.0 Order_of_the_British_Empire en 1.0 4073961.0
0.0 Walt_Disney en 1.0 12821265.0
0.0 Category:All_stub_articles en 1.0 3372021.0
0.0 Building_information_modeling en 1.0 15033164.0
0.0 Harvard_University en 1.0 9540719.0
0.0 Special:UserLogin en 1.0 1047123130.0
0.0 John_Cena en 1.0 38703885.0
0.0 Demat_account en 1.0 174061131.0
0.0 Main_Page en 1.0 8533729872.0
0.0 Main_Page en 1.0 8533729872.0
0.0 Main_Page en 1.0 8533729872.0
0.0 Main_Page en 1.0 8533729872.0
0.0 Main_Page en 1.0 8533729872.0
0.0 Liam_Neeson en 1.0 8386859.0
0.0 Main_Page en 1.0 8533729872.0
0.0 Special:BlankPage en 1.0 942340592.0
0.0 Web_scraping en 1.0 28358326.0
0.0 Morena_Baccarin en 1.0 2225070.0
0.0 Main_Page en 1.0 8533729872.0
0.0 Main_Page en 1.0 8533729872.0
0.0 The_Revenant_(2015_film) en 1.0 59359352.0
0.0 Game_System_License en 1.0 2647545.0
0.0 OS_X en 1.0 11045216.0
0.0 Main_Page en 1.0 8533729872.0
0.0 Johnny_Depp en 1.0 16311869.0
0.0 List_of_New_Girl_episodes en 1.0 3990631.0
0.0 Main_Page en 1.0 8533729872.0
0.0 Main_Page en 1.0 8533729872.0
0.0 Main_Page en 1.0 8533729872.0
0.0 File:Evander_Holyfield_LA_2011.jpg en 1.0 175595651.0
0.0 European_migrant_crisis en 1.0 26234921.0
0.0 Christopher_Nolan en 1.0 13992734.0
0.0 Main_Page en 1.0 8533729872.0
0.0 Special:BlankPage en 1.0 942340592.0
0.0 Main_Page en 1.0 8533729872.0
0.0 Aditya_Roy_Kapur en 1.0 1685544.0
0.0 File:Evander_Holyfield_LA_2011.jpg en 1.0 175595651.0
0.0 Main_Page en 1.0 8533729872.0
0.0 Main_Page en 1.0 8533729872.0
0.0 Main_Page en 1.0 8533729872.0
0.0 Special:Export en 1.0 10264333.0
0.0 Special:UserLogin en 1.0 1047123130.0
0.0 Main_Page en 1.0 8533729872.0
0.0 2016_Brisbane_International_%E2%80%93_Men%27s_Singles en 1.0 2647789.0
0.0 Making_a_Murderer en 1.0 33144160.0
0.0 Special:BlankPage en 1.0 942340592.0
0.0 Special:UserLogin en 1.0 1047123130.0
0.0 Web_scraping en 1.0 28358326.0
0.0 Special:UserLogin en 1.0 1047123130.0
0.0 Main_Page en 1.0 8533729872.0
0.0 Main_Page en 1.0 8533729872.0
0.0 List_of_Bollywood_films_of_2016 en 1.0 28421096.0
0.0 Special:BlankPage en 1.0 942340592.0
0.0 Main_Page en 1.0 8533729872.0
0.0 Main_Page en 1.0 8533729872.0
0.0 Special:UserLogin en 1.0 1047123130.0
0.0 Main_Page en 1.0 8533729872.0
0.0 Main_Page en 1.0 8533729872.0
0.0 Main_Page en 1.0 8533729872.0
0.0 Special:MyContributions en 1.0 2593407.0
0.0 German_Moreno en 1.0 14611541.0
0.0 Main_Page en 1.0 8533729872.0
0.0 UFC_on_Fox:_Johnson_vs._Bader en 1.0 3258481.0
0.0 Main_Page en 1.0 8533729872.0
0.0 Nicole_Scherzinger en 1.0 9419144.0
0.0 Main_Page en 1.0 8533729872.0
0.0 Main_Page en 1.0 8533729872.0
0.0 Main_Page en 1.0 8533729872.0
0.0 Main_Page en 1.0 8533729872.0
0.0 Main_Page en 1.0 8533729872.0
0.0 List_of_Malayalam_films_of_2015 en 1.0 4704455.0
0.0 Java_(programming_language) en 1.0 9701848.0
0.0 Indian_independence_movement en 1.0 7818800.0
0.0 Main_Page en 1.0 8533729872.0
0.0 Main_Page en 1.0 8533729872.0
0.0 Main_Page en 1.0 8533729872.0
0.0 DNA en 1.0 12918271.0
0.0 Chekhov%27s_gun en 1.0 1618204.0
0.0 Barack_obama en 1.0 255717473.0
0.0 Main_Page en 1.0 8533729872.0
0.0 Main_Page en 1.0 8533729872.0
0.0 Main_Page en 1.0 8533729872.0
0.0 Wikipedia:About en 1.0 23759960.0
0.0 Homeland_(TV_series) en 1.0 9585686.0
0.0 Main_Page en 1.0 8533729872.0
0.0 Main_Page en 1.0 8533729872.0
0.0 Main_Page en 1.0 8533729872.0
0.0 Gerald_Ford en 1.0 15974617.0
0.0 Sherlock_(TV_series) en 1.0 46371239.0
0.0 Dwayne_Johnson en 1.0 20479296.0
0.0 Special:UserLogin en 1.0 1047123130.0
0.0 Myriad_Colors_Phantom_World en 1.0 4332676.0
0.0 Main_Page en 1.0 8533729872.0
0.0 Bruce_Kingsbury en 1.0 16659828.0
0.0 Main_Page en 1.0 8533729872.0
0.0 Ryan_Reynolds en 1.0 3636435.0
0.0 Main_Page en 1.0 8533729872.0
0.0 Main_Page en 1.0 8533729872.0
0.0 Special:BlankPage en 1.0 942340592.0
0.0 Main_Page en 1.0 8533729872.0
0.0 Main_Page en 1.0 8533729872.0
0.0 Main_Page en 1.0 8533729872.0
0.0 Main_Page en 1.0 8533729872.0
0.0 Demat_account en 1.0 174061131.0
0.0 Main_Page en 1.0 8533729872.0
0.0 Main_Page en 1.0 8533729872.0
0.0 Main_Page en 1.0 8533729872.0
0.0 Mughal_Empire en 1.0 9471654.0
0.0 Fargo_(season_2) en 1.0 3014562.0
0.0 Web_scraping en 1.0 28358326.0
0.0 Main_Page en 1.0 8533729872.0
0.0 History_of_India en 1.0 14388288.0
0.0 Main_Page en 1.0 8533729872.0
0.0 Special:BlankPage en 1.0 942340592.0
0.0 Muslim_conquest_of_Sicily en 1.0 61546626.0
0.0 Special:Search en 1.0 108047570.0
0.0 Main_Page en 1.0 8533729872.0
0.0 Main_Page en 1.0 8533729872.0
0.0 Main_Page en 1.0 8533729872.0
0.0 Main_Page en 1.0 8533729872.0
0.0 Jimmy_Carter en 1.0 13793603.0
0.0 Mohammad_Reza_Pahlavi en 1.0 10611752.0
0.0 Main_Page en 1.0 8533729872.0
0.0 Marco_Polo en 1.0 5508775.0
0.0 Ddd en 1.0 56799834.0
0.0 Special:BlankPage en 1.0 942340592.0
0.0 Jallikattu en 1.0 9535280.0
0.0 Main_Page en 1.0 8533729872.0
0.0 Special:UserLogin en 1.0 1047123130.0
0.0 Yoshio_Tachibana en 1.0 5473637.0
0.0 Special:BlankPage en 1.0 942340592.0
0.0 Proyecto_40 en 1.0 5938603.0
0.0 Main_Page en 1.0 8533729872.0
0.0 Main_Page en 1.0 8533729872.0
0.0 Web_scraping en 1.0 28358326.0
0.0 File:Charlie_Hebdo_logo.svg en 1.0 12336839.0
0.0 Lip_Sync_Battle en 1.0 17720380.0
0.0 Main_Page en 1.0 8533729872.0
0.0 Special:Search en 1.0 108047570.0
0.0 Special:BlankPage en 1.0 942340592.0
0.0 Main_Page en 1.0 8533729872.0
0.0 Main_Page en 1.0 8533729872.0
0.0 Netflix en 1.0 169502962.0
0.0 Special:UserLogin en 1.0 1047123130.0
0.0 Main_Page en 1.0 8533729872.0
0.0 Much_Ado_About_Nothing en 1.0 40783320.0
0.0 Main_Page en 1.0 8533729872.0
0.0 Main_Page en 1.0 8533729872.0
0.0 Special:BlankPage en 1.0 942340592.0
0.0 Toronto en 1.0 14629098.0
0.0 Demat_account en 1.0 174061131.0
0.0 Main_Page en 1.0 8533729872.0
0.0 Steven_Avery en 1.0 25258095.0
0.0 Main_Page en 1.0 8533729872.0
0.0 Ted_Cruz en 1.0 37071537.0
0.0 Special:HideBanners en 1.0 0.0
0.0 Achcham_Enbadhu_Madamaiyada en 1.0 2468569.0
0.0 Main_Page en 1.0 8533729872.0
0.0 Main_Page en 1.0 8533729872.0
0.0 Main_Page en 1.0 8533729872.0
0.0 Main_Page en 1.0 8533729872.0
0.0 Waodani en 1.0 5478060.0
0.0 Main_Page en 1.0 8533729872.0
0.0 Special:UserLogin en 1.0 1047123130.0
0.0 Star_Wars:_The_Force_Awakens en 1.0 360319666.0
0.0 Main_Page en 1.0 8533729872.0
0.0 4K_resolution en 1.0 5663923.0
0.0 Kim_Kardashian en 1.0 13246879.0
0.0 HTTPS en 1.0 116491638.0
0.0 Main_Page en 1.0 8533729872.0
0.0 The_Americans_(2013_TV_series) en 1.0 3818887.0
0.0 Main_Page en 1.0 8533729872.0
0.0 Main_Page en 1.0 8533729872.0
0.0 Main_Page en 1.0 8533729872.0
0.0 Chichijima_incident en 1.0 156777745.0
0.0 Special:UserLogin en 1.0 1047123130.0
0.0 Main_Page en 1.0 8533729872.0
0.0 Main_Page en 1.0 8533729872.0
0.0 Main_Page en 1.0 8533729872.0
0.0 Main_Page en 1.0 8533729872.0
0.0 Special:UserLogin en 1.0 1047123130.0
0.0 Special:UserLogin en 1.0 1047123130.0
0.0 Main_Page en 1.0 8533729872.0
0.0 Main_Page en 1.0 8533729872.0
0.0 Main_Page en 1.0 8533729872.0
0.0 Ddd en 1.0 56799834.0
0.0 Main_Page en 1.0 8533729872.0
0.0 Bob_Marley en 1.0 7610107.0
0.0 Special:UserLogin en 1.0 1047123130.0
0.0 2011%E2%80%9312_Saudi_Arabian_protests en 1.0 29432871.0
0.0 Special:UserLogin en 1.0 1047123130.0
0.0 Assassin%27s_Creed en 1.0 12385152.0
0.0 Queen_Victoria en 1.0 12918286.0
0.0 Wikipedia en 1.0 114702369.0
0.0 Main_Page en 1.0 8533729872.0
0.0 Chicago_Fire_(TV_series) en 1.0 5591371.0
0.0 Portal:Current_events en 1.0 77636666.0
0.0 Main_Page en 1.0 8533729872.0
0.0 Che_Guevara en 1.0 14608783.0
0.0 Main_Page en 1.0 8533729872.0
0.0 Special:UserLogin en 1.0 1047123130.0
0.0 Philippines en 1.0 77378676.0
0.0 Special:BlankPage en 1.0 942340592.0
0.0 Special:BlankPage en 1.0 942340592.0
0.0 Special:UserLogin en 1.0 1047123130.0
0.0 Main_Page en 1.0 8533729872.0
0.0 Main_Page en 1.0 8533729872.0
0.0 Main_Page en 1.0 8533729872.0
0.0 Special:BlankPage en 1.0 942340592.0
0.0 Main_Page en 1.0 8533729872.0
0.0 Main_Page en 1.0 8533729872.0
0.0 Special:UserLogin en 1.0 1047123130.0
0.0 Special:UserLogin en 1.0 1047123130.0
0.0 Web_feed en 1.0 4056050.0
0.0 List_of_Star_Wars:_The_Clone_Wars_episodes en 1.0 5795435.0
0.0 Malta en 1.0 22182638.0
0.0 Chichijima_incident en 1.0 156777745.0
0.0 Main_Page en 1.0 8533729872.0
0.0 Main_Page en 1.0 8533729872.0
0.0 Thermonuclear_weapon en 1.0 70269413.0
0.0 Main_Page en 1.0 8533729872.0
0.0 Alejandro_Gonz%C3%A1lez_I%C3%B1%C3%A1rritu en 1.0 9583731.0
0.0 Special:BlankPage en 1.0 942340592.0
0.0 Main_Page en 1.0 8533729872.0
0.0 Main_Page en 1.0 8533729872.0
0.0 Dragon_Ball_Super en 1.0 6850173.0
0.0 Main_Page en 1.0 8533729872.0
0.0 Main_Page en 1.0 8533729872.0
0.0 Chichijima_incident en 1.0 156777745.0
0.0 Main_Page en 1.0 8533729872.0
0.0 Main_Page en 1.0 8533729872.0
0.0 Chichijima_incident en 1.0 156777745.0
0.0 Chichijima_incident en 1.0 156777745.0
0.0 Main_Page en 1.0 8533729872.0
0.0 Main_Page en 1.0 8533729872.0
0.0 Special:UserLogin en 1.0 1047123130.0
0.0 Special:UserLogin en 1.0 1047123130.0
0.0 Main_Page en 1.0 8533729872.0
0.0 Special:BlankPage en 1.0 942340592.0
0.0 Conor_McGregor en 1.0 18563582.0
0.0 Special:UserLogin en 1.0 1047123130.0
0.0 Main_Page en 1.0 8533729872.0
0.0 The_Matrix en 1.0 8565574.0
0.0 Main_Page en 1.0 8533729872.0
0.0 House_(TV_series) en 1.0 14965523.0
0.0 Main_Page en 1.0 8533729872.0
0.0 Undertale en 1.0 5181288.0
0.0 Main_Page en 1.0 8533729872.0
0.0 Special:Search en 1.0 108047570.0
0.0 Main_Page en 1.0 8533729872.0
0.0 Prince_of_Stride en 1.0 3371368.0
0.0 Firehouse,_Hook_%26_Ladder_Company_8 en 1.0 6562070.0
0.0 The_Last_of_Us en 1.0 7384439.0
0.0 Kylo_Ren en 1.0 16742312.0
0.0 Main_Page en 1.0 8533729872.0
0.0 Main_Page en 1.0 8533729872.0
0.0 Main_Page en 1.0 8533729872.0
0.0 Special:BlankPage en 1.0 942340592.0
0.0 Main_Page en 1.0 8533729872.0
0.0 Canada en 1.0 59044537.0
0.0 Fibonacci_number en 1.0 8081740.0
0.0 Chichijima_incident en 1.0 156777745.0
0.0 World_War_II en 1.0 67299809.0
0.0 Whiplash_(2014_film) en 1.0 3134619.0
0.0 Main_Page en 1.0 8533729872.0
0.0 Special:BlankPage en 1.0 942340592.0
0.0 Main_Page en 1.0 8533729872.0
0.0 Safari_(web_browser) en 1.0 22509008.0
0.0 1996 en 1.0 29956158.0
0.0 Finland en 1.0 27573300.0
0.0 Pneumonia en 1.0 9752042.0
0.0 California en 1.0 40426259.0
0.0 Special:UserLogin en 1.0 1047123130.0
0.0 File:Entrevistas_Diversas_(17302999185).jpg en 1.0 3313156.0
0.0 Main_Page en 1.0 8533729872.0
0.0 Swachh_Bharat_Abhiyan en 1.0 3060330.0
0.0 File:Evander_Holyfield_LA_2011.jpg en 1.0 175595651.0
0.0 Index.php en 1.0 5377671.0
0.0 Main_Page en 1.0 8533729872.0
0.0 Syrian_Civil_War en 1.0 124670979.0
0.0 Main_Page en 1.0 8533729872.0
0.0 Main_Page en 1.0 8533729872.0
0.0 Main_Page en 1.0 8533729872.0
0.0 List_of_TCP_and_UDP_port_numbers en 1.0 31413508.0
0.0 Eternity_II_puzzle en 1.0 41705811.0
0.0 Eternity_II_puzzle en 1.0 41705811.0
0.0 Main_Page en 1.0 8533729872.0
0.0 Main_Page en 1.0 8533729872.0
0.0 Amy_Poehler en 1.0 5586763.0
0.0 Main_Page en 1.0 8533729872.0
0.0 Sherlock_(TV_series) en 1.0 46371239.0
0.0 Main_Page en 1.0 8533729872.0
0.0 Main_Page en 1.0 8533729872.0
0.0 Main_Page en 1.0 8533729872.0
0.0 Rachel_Platten en 1.0 2714609.0
0.0 Main_Page en 1.0 8533729872.0
0.0 Main_Page en 1.0 8533729872.0
0.0 File:Evander_Holyfield_LA_2011.jpg en 1.0 175595651.0
0.0 Main_Page en 1.0 8533729872.0
0.0 Meteoric_iron en 1.0 4842990.0
0.0 Special:Search en 1.0 108047570.0
0.0 Special:UserLogin en 1.0 1047123130.0
0.0 Special:BlankPage en 1.0 942340592.0
0.0 Main_Page en 1.0 8533729872.0
0.0 Special:BlankPage en 1.0 942340592.0
0.0 Main_Page en 1.0 8533729872.0
0.0 Main_Page en 1.0 8533729872.0
0.0 Special:BlankPage en 1.0 942340592.0
0.0 Europe en 1.0 28543922.0
0.0 Special:UserLogin en 1.0 1047123130.0
0.0 Special:BlankPage en 1.0 942340592.0
0.0 Special:BlankPage en 1.0 942340592.0
0.0 Main_Page en 1.0 8533729872.0
0.0 Rocky en 1.0 8879690.0
0.0 Main_Page en 1.0 8533729872.0
0.0 Main_Page en 1.0 8533729872.0
0.0 Main_Page en 1.0 8533729872.0
0.0 Main_Page en 1.0 8533729872.0
0.0 Special:BlankPage en 1.0 942340592.0
0.0 Main_Page en 1.0 8533729872.0
0.0 Main_Page en 1.0 8533729872.0
0.0 Main_Page en 1.0 8533729872.0
0.0 Main_Page en 1.0 8533729872.0
0.0 Unit_731 en 1.0 36593723.0
0.0 Main_Page en 1.0 8533729872.0
0.0 Special:UserLogin en 1.0 1047123130.0
0.0 Main_Page en 1.0 8533729872.0
0.0 Help:IPA_for_English en 1.0 11944409.0
0.0 Main_Page en 1.0 8533729872.0
0.0 Chichijima_incident en 1.0 156777745.0
0.0 Main_Page en 1.0 8533729872.0
0.0 Main_Page en 1.0 8533729872.0
0.0 Main_Page en 1.0 8533729872.0
0.0 Main_Page en 1.0 8533729872.0
0.0 Main_Page en 1.0 8533729872.0
0.0 Special:BlankPage en 1.0 942340592.0
0.0 Main_Page en 1.0 8533729872.0
0.0 Main_Page en 1.0 8533729872.0
0.0 Main_Page en 1.0 8533729872.0
0.0 AGM-114_Hellfire en 1.0 9431631.0
0.0 Carol_(film) en 1.0 12678295.0
0.0 Special:BlankPage en 1.0 942340592.0
0.0 Main_Page en 1.0 8533729872.0
0.0 Main_Page en 1.0 8533729872.0
0.0 Main_Page en 1.0 8533729872.0
0.0 Main_Page en 1.0 8533729872.0
0.0 Star_Wars_Episode_III:_Revenge_of_the_Sith en 1.0 18655651.0
0.0 Main_Page en 1.0 8533729872.0
0.0 Main_Page en 1.0 8533729872.0
0.0 Main_Page en 1.0 8533729872.0
0.0 Special:UserLogin en 1.0 1047123130.0
0.0 Inside_Llewyn_Davis en 1.0 3770709.0
0.0 Vodafone en 1.0 125393612.0
0.0 Main_Page en 1.0 8533729872.0
0.0 Main_Page en 1.0 8533729872.0
0.0 Main_Page en 1.0 8533729872.0
0.0 2015 en 1.0 6192330.0
0.0 2015_in_film en 1.0 110436486.0
0.0 Main_Page en 1.0 8533729872.0
0.0 Special:BlankPage en 1.0 942340592.0
0.0 Main_Page en 1.0 8533729872.0
0.0 Demat_account en 1.0 174061131.0
0.0 Special:UserLogin en 1.0 1047123130.0
0.0 Main_Page en 1.0 8533729872.0
0.0 NASA en 1.0 19760673.0
0.0 Gone_Girl_(film) en 1.0 4003971.0
0.0 Ejaculation en 1.0 3941436.0
0.0 Web_scraping en 1.0 28358326.0
0.0 Basketball en 1.0 11239879.0
0.0 Special:UserLogin en 1.0 1047123130.0
0.0 Main_Page en 1.0 8533729872.0
0.0 Main_Page en 1.0 8533729872.0
0.0 Main_Page en 1.0 8533729872.0
0.0 Special:UserLogin en 1.0 1047123130.0
0.0 Cannibalism en 1.0 6639807.0
0.0 Nimr_al-Nimr en 1.0 31679231.0
0.0 The_Blacklist_(TV_series) en 1.0 15236835.0
0.0 Main_Page en 1.0 8533729872.0
0.0 Special:UserLogin en 1.0 1047123130.0
0.0 The_Walking_Dead_(TV_series) en 1.0 27399607.0
0.0 Java_(programming_language) en 1.0 9701848.0
0.0 Main_Page en 1.0 8533729872.0
0.0 Howard_Hughes en 1.0 6953003.0
0.0 Hawaii en 1.0 22634741.0
0.0 Main_Page en 1.0 8533729872.0
0.0 Main_Page en 1.0 8533729872.0
0.0 Bikini en 1.0 177244701.0
0.0 Main_Page en 1.0 8533729872.0
0.0 Main_Page en 1.0 8533729872.0
0.0 Main_Page en 1.0 8533729872.0
0.0 Main_Page en 1.0 8533729872.0
0.0 Main_Page en 1.0 8533729872.0
0.0 Special:UserLogin en 1.0 1047123130.0
0.0 Paul_LePage en 1.0 9194747.0
0.0 Main_Page en 1.0 8533729872.0
0.0 Main_Page en 1.0 8533729872.0
0.0 Main_Page en 1.0 8533729872.0
0.0 Main_Page en 1.0 8533729872.0
0.0 Main_Page en 1.0 8533729872.0
0.0 Special:UserLogin en 1.0 1047123130.0
0.0 Main_Page en 1.0 8533729872.0
0.0 List_of_United_States_cities_by_population en 1.0 13961963.0
0.0 American_Idol en 1.0 24506070.0
0.0 Demat_account en 1.0 174061131.0
0.0 Special:UserLogin en 1.0 1047123130.0
0.0 Main_Page en 1.0 8533729872.0
0.0 Main_Page en 1.0 8533729872.0
0.0 Main_Page en 1.0 8533729872.0
0.0 Main_Page en 1.0 8533729872.0
0.0 Main_Page en 1.0 8533729872.0
0.0 Chichijima_incident en 1.0 156777745.0
0.0 Main_Page en 1.0 8533729872.0
0.0 Main_Page en 1.0 8533729872.0
0.0 Main_Page en 1.0 8533729872.0
0.0 Main_Page en 1.0 8533729872.0
0.0 Main_Page en 1.0 8533729872.0
0.0 Special:UserLogin en 1.0 1047123130.0
0.0 Main_Page en 1.0 8533729872.0
0.0 Special:UserLogin en 1.0 1047123130.0
0.0 Main_Page en 1.0 8533729872.0
0.0 Eternity_II_puzzle en 1.0 41705811.0
0.0 Main_Page en 1.0 8533729872.0
0.0 Demat_account en 1.0 174061131.0
0.0 Main_Page en 1.0 8533729872.0
0.0 ARM_architecture en 1.0 5965135.0
0.0 Main_Page en 1.0 8533729872.0
0.0 Teratoma en 1.0 10328652.0
0.0 Main_Page en 1.0 8533729872.0
0.0 Mike_Piazza en 1.0 8936164.0
0.0 BDSM en 1.0 11253323.0
0.0 Scandal_(TV_series) en 1.0 6885908.0
0.0 Main_Page en 1.0 8533729872.0
0.0 Masturbation en 1.0 14638476.0
0.0 Main_Page en 1.0 8533729872.0
0.0 Charlie_Chaplin en 1.0 15757192.0
0.0 Main_Page en 1.0 8533729872.0
0.0 Wikipedia:Community_portal en 1.0 8235473.0
0.0 Main_Page en 1.0 8533729872.0
0.0 Main_Page en 1.0 8533729872.0
0.0 Main_Page en 1.0 8533729872.0
0.0 Main_Page en 1.0 8533729872.0
0.0 Republican_Party_(United_States) en 1.0 23319403.0
0.0 Chichijima_incident en 1.0 156777745.0
0.0 Indian_Army en 1.0 8991510.0
0.0 Main_Page en 1.0 8533729872.0
0.0 Special:UserLogin en 1.0 1047123130.0
0.0 Main_Page en 1.0 8533729872.0
0.0 George_H._W._Bush en 1.0 221410448.0
0.0 Main_Page en 1.0 8533729872.0
0.0 Main_Page en 1.0 8533729872.0
0.0 The_Big_Short en 1.0 3421808.0
0.0 Main_Page en 1.0 8533729872.0
0.0 Special:UserLogin en 1.0 1047123130.0
0.0 Chichijima_incident en 1.0 156777745.0
0.0 Main_Page en 1.0 8533729872.0
0.0 Main_Page en 1.0 8533729872.0
0.0 Main_Page en 1.0 8533729872.0
0.0 Mao_Zedong en 1.0 14016841.0
0.0 Main_Page en 1.0 8533729872.0
0.0 Barack_obama en 1.0 255717473.0
0.0 %C3%96tzi en 1.0 17591467.0
0.0 Main_Page en 1.0 8533729872.0
0.0 Chichijima_incident en 1.0 156777745.0
0.0 Main_Page en 1.0 8533729872.0
0.0 Main_Page en 1.0 8533729872.0
0.0 Main_Page en 1.0 8533729872.0
0.0 Main_Page en 1.0 8533729872.0
0.0 Portal:Current_events en 1.0 77636666.0
0.0 Spain en 1.0 25806149.0
0.0 Main_Page en 1.0 8533729872.0
0.0 Main_Page en 1.0 8533729872.0
0.0 Main_Page en 1.0 8533729872.0
0.0 Software_testing en 1.0 8593634.0
0.0 Main_Page en 1.0 8533729872.0
0.0 Special:UserLogin en 1.0 1047123130.0
0.0 Wazir_(film) en 1.0 28376882.0
0.0 Main_Page en 1.0 8533729872.0
0.0 Main_Page en 1.0 8533729872.0
0.0 Alan_Turing en 1.0 16251931.0
0.0 Special:Search en 1.0 108047570.0
0.0 List_of_highest-grossing_films en 1.0 167724226.0
0.0 Main_Page en 1.0 8533729872.0
0.0 Google en 1.0 74694473.0
0.0 Chichijima_incident en 1.0 156777745.0
0.0 Main_Page en 1.0 8533729872.0
0.0 Main_Page en 1.0 8533729872.0
0.0 Pink_(singer) en 1.0 8223898.0
0.0 Special:BlankPage en 1.0 942340592.0
0.0 Miley_Cyrus en 1.0 13716583.0
0.0 Internet_of_Things en 1.0 18929507.0
0.0 Main_Page en 1.0 8533729872.0
0.0 Main_Page en 1.0 8533729872.0
0.0 Special:RecentChanges en 1.0 21739539.0
0.0 Main_Page en 1.0 8533729872.0
0.0 Main_Page en 1.0 8533729872.0
0.0 Boku_Dake_ga_Inai_Machi en 1.0 9358161.0
0.0 Special:UserLogin en 1.0 1047123130.0
0.0 Chichijima_incident en 1.0 156777745.0
0.0 Main_Page en 1.0 8533729872.0
0.0 Special:BlankPage en 1.0 942340592.0
0.0 List_of_Bollywood_films_of_2015 en 1.0 33642693.0
0.0 Main_Page en 1.0 8533729872.0
0.0 Special:UserLogin en 1.0 1047123130.0
0.0 Main_Page en 1.0 8533729872.0
0.0 Special:UserLogin en 1.0 1047123130.0
0.0 Dale_D._Myers en 1.0 5764803.0
0.0 Main_Page en 1.0 8533729872.0
0.0 Main_Page en 1.0 8533729872.0
0.0 Much_Ado_About_Nothing en 1.0 40783320.0
0.0 Main_Page en 1.0 8533729872.0
0.0 Natalie_Cole en 1.0 7616340.0
0.0 Jenna_Dewan en 1.0 24310477.0
0.0 Main_Page en 1.0 8533729872.0
0.0 Hailey_Baldwin en 1.0 1750087.0
0.0 List_of_highest-grossing_films en 1.0 167724226.0
0.0 Main_Page en 1.0 8533729872.0
0.0 Tata_Consultancy_Services en 1.0 4761464.0
0.0 Main_Page en 1.0 8533729872.0
0.0 Main_Page en 1.0 8533729872.0
0.0 Main_Page en 1.0 8533729872.0
0.0 The_Hidden_Wiki en 1.0 1688543.0
0.0 Main_Page en 1.0 8533729872.0
0.0 Special:Search en 1.0 108047570.0
0.0 Chichi_Jima en 1.0 2701259.0
0.0 Los_Angeles en 1.0 24704013.0
0.0 Main_Page en 1.0 8533729872.0
0.0 Jennifer_Jason_Leigh en 1.0 24934592.0
0.0 Agent_Carter_(TV_series) en 1.0 6761386.0
0.0 Main_Page en 1.0 8533729872.0
0.0 Main_Page en 1.0 8533729872.0
0.0 Transport_Layer_Security en 1.0 24442625.0
0.0 Steve_Jobs en 1.0 49987870.0
0.0 Main_Page en 1.0 8533729872.0
0.0 Special:UserLogin en 1.0 1047123130.0
0.0 Bren_light_machine_gun en 1.0 17434771.0
0.0 Main_Page en 1.0 8533729872.0
0.0 Stephen_Hawking en 1.0 40873878.0
0.0 Main_Page en 1.0 8533729872.0
0.0 Main_Page en 1.0 8533729872.0
0.0 Main_Page en 1.0 8533729872.0
0.0 Rand_Paul en 1.0 6278774.0
0.0 Airlift_(film) en 1.0 5723291.0
0.0 Deaths_in_2016 en 1.0 53894002.0
0.0 Main_Page en 1.0 8533729872.0
0.0 Main_Page en 1.0 8533729872.0
0.0 Special:UserLogin en 1.0 1047123130.0
0.0 Main_Page en 1.0 8533729872.0
0.0 Main_Page en 1.0 8533729872.0
0.0 Special:BlankPage en 1.0 942340592.0
0.0 Main_Page en 1.0 8533729872.0
0.0 The_Magicians_(U.S._TV_series) en 1.0 1947266.0
0.0 Main_Page en 1.0 8533729872.0
0.0 Bed_size en 1.0 2084919.0
0.0 Main_Page en 1.0 8533729872.0
0.0 Game_of_Thrones en 1.0 78026053.0
0.0 Main_Page en 1.0 8533729872.0
0.0 Main_Page en 1.0 8533729872.0
0.0 Special:BlankPage en 1.0 942340592.0
0.0 Special:BlankPage en 1.0 942340592.0
0.0 Main_Page en 1.0 8533729872.0
0.0 Unit_731 en 1.0 36593723.0
0.0 Main_Page en 1.0 8533729872.0
0.0 Special:BlankPage en 1.0 942340592.0
0.0 George_H._W._Bush en 1.0 221410448.0
0.0 Main_Page en 1.0 8533729872.0
0.0 Alaska en 1.0 17356961.0
0.0 Iran en 1.0 49798696.0
0.0 Bajirao_I en 1.0 18185555.0
0.0 Main_Page en 1.0 8533729872.0
0.0 Main_Page en 1.0 8533729872.0
0.0 Main_Page en 1.0 8533729872.0
0.0 Main_Page en 1.0 8533729872.0
0.0 Main_Page en 1.0 8533729872.0
0.0 Special:UserLogin en 1.0 1047123130.0
0.0 Main_Page en 1.0 8533729872.0
0.0 Web_scraping en 1.0 28358326.0
0.0 Eternity_II_puzzle en 1.0 41705811.0
0.0 Main_Page en 1.0 8533729872.0
0.0 Wiki/w/index.php en 1.0 5499704.0
0.0 Main_Page en 1.0 8533729872.0
0.0 Main_Page en 1.0 8533729872.0
0.0 Smash_(The_Offspring_album) en 1.0 4503060.0
0.0 Operation_Auca en 1.0 15045086.0
0.0 File:Evander_Holyfield_LA_2011.jpg en 1.0 175595651.0
0.0 Main_Page en 1.0 8533729872.0
0.0 John_McCain en 1.0 30586634.0
0.0 Main_Page en 1.0 8533729872.0
0.0 Main_Page en 1.0 8533729872.0
0.0 Main_Page en 1.0 8533729872.0
0.0 Special:HideBanners en 1.0 0.0
0.0 Special:BlankPage en 1.0 942340592.0
0.0 Special:BlankPage en 1.0 942340592.0
0.0 Allanah_Starr en 1.0 2053906.0
0.0 Main_Page en 1.0 8533729872.0
0.0 Main_Page en 1.0 8533729872.0
0.0 Main_Page en 1.0 8533729872.0
0.0 List_of_Greek_mythological_figures en 1.0 6888527.0
0.0 Main_Page en 1.0 8533729872.0
0.0 HTTPS en 1.0 116491638.0
0.0 Main_Page en 1.0 8533729872.0
0.0 Special:BlankPage en 1.0 942340592.0
0.0 Main_Page en 1.0 8533729872.0
0.0 Special:BlankPage en 1.0 942340592.0
0.0 Jake_Gyllenhaal en 1.0 5667706.0
0.0 Special:BlankPage en 1.0 942340592.0
0.0 Java_(programming_language) en 1.0 9701848.0
0.0 Chichijima_incident en 1.0 156777745.0
0.0 Main_Page en 1.0 8533729872.0
0.0 Star_Wars:_The_Force_Awakens en 1.0 360319666.0
0.0 File:Wall_Street_Journal_28April2008.jpg en 1.0 3691800.0
0.0 Main_Page en 1.0 8533729872.0
0.0 Main_Page en 1.0 8533729872.0
0.0 Special:BlankPage en 1.0 942340592.0
0.0 Main_Page en 1.0 8533729872.0
0.0 Demat_account en 1.0 174061131.0
0.0 Main_Page en 1.0 8533729872.0
0.0 Main_Page en 1.0 8533729872.0
0.0 People%27s_Choice_Awards en 1.0 2558721.0
0.0 Special:UserLogin en 1.0 1047123130.0
0.0 Main_Page en 1.0 8533729872.0
0.0 Main_Page en 1.0 8533729872.0
0.0 List_of_celebrities_appearing_on_Daily_Cooks_Challenge en 1.0 1235088.0
0.0 Special:BlankPage en 1.0 942340592.0
0.0 Main_Page en 1.0 8533729872.0
0.0 Main_Page en 1.0 8533729872.0
0.0 Main_Page en 1.0 8533729872.0
0.0 Main_Page en 1.0 8533729872.0
0.0 Main_Page en 1.0 8533729872.0
0.0 Elizabeth_II en 1.0 29045476.0
0.0 Bhagat_Singh en 1.0 6788575.0
0.0 Main_Page en 1.0 8533729872.0
0.0 Main_Page en 1.0 8533729872.0
0.0 Java_(programming_language) en 1.0 9701848.0
0.0 Main_Page en 1.0 8533729872.0
0.0 87th_Academy_Awards en 1.0 6846857.0
0.0 Main_Page en 1.0 8533729872.0
0.0 Main_Page en 1.0 8533729872.0
0.0 Special:BlankPage en 1.0 942340592.0
0.0 Main_Page en 1.0 8533729872.0
0.0 Special:UserLogin en 1.0 1047123130.0
0.0 Main_Page en 1.0 8533729872.0
0.0 Special:BlankPage en 1.0 942340592.0
0.0 Main_Page en 1.0 8533729872.0
0.0 Main_Page en 1.0 8533729872.0
0.0 Main_Page en 1.0 8533729872.0
0.0 Main_Page en 1.0 8533729872.0
0.0 Main_Page en 1.0 8533729872.0
0.0 Special:UserLogin en 1.0 1047123130.0
0.0 Special:UserLogin en 1.0 1047123130.0
0.0 Main_Page en 1.0 8533729872.0
0.0 Special:BlankPage en 1.0 942340592.0
0.0 Main_Page en 1.0 8533729872.0
0.0 Special:UserLogin en 1.0 1047123130.0
0.0 The_Shannara_Chronicles en 1.0 24672996.0
0.0 Special:UserLogin en 1.0 1047123130.0
0.0 Steve_Jobs en 1.0 49987870.0
0.0 Special:BlankPage en 1.0 942340592.0
0.0 The_Omen en 1.0 2818588.0
0.0 Main_Page en 1.0 8533729872.0
0.0 Main_Page en 1.0 8533729872.0
0.0 Eternity_II_puzzle en 1.0 41705811.0
0.0 Main_Page en 1.0 8533729872.0
0.0 Special:BlankPage en 1.0 942340592.0
0.0 Demi_Lovato en 1.0 10812668.0
0.0 Kylo_Ren en 1.0 16742312.0
0.0 Much_Ado_About_Nothing en 1.0 40783320.0
0.0 Nurse_Jackie en 1.0 4159250.0
0.0 Flush_toilet en 1.0 19101791.0
0.0 File:Calgary_Flames_Logo.svg en 1.0 3449658.0
0.0 Special:UserLogin en 1.0 1047123130.0
0.0 Pia_Wurtzbach en 1.0 6130953.0
0.0 The_Adventures_of_Milo_and_Otis en 1.0 3085144.0
0.0 Main_Page en 1.0 8533729872.0
0.0 Main_Page en 1.0 8533729872.0
0.0 Main_Page en 1.0 8533729872.0
0.0 Main_Page en 1.0 8533729872.0
0.0 Google_Maps en 1.0 22284182.0
0.0 New_Year%27s_Eve_sexual_assaults_in_Germany en 1.0 29613078.0
0.0 Main_Page en 1.0 8533729872.0
0.0 Special:BlankPage en 1.0 942340592.0
0.0 Main_Page en 1.0 8533729872.0
0.0 Maldives en 1.0 15325327.0
0.0 Main_Page en 1.0 8533729872.0
0.0 Main_Page en 1.0 8533729872.0
0.0 Special:UserLogin en 1.0 1047123130.0
0.0 Main_Page en 1.0 8533729872.0
0.0 The_Conjuring_2:_The_Enfield_Poltergeist en 1.0 7636366.0
0.0 Jennifer_Jason_Leigh en 1.0 24934592.0
0.0 Main_Page en 1.0 8533729872.0
0.0 Main_Page en 1.0 8533729872.0
0.0 Main_Page en 1.0 8533729872.0
0.0 Main_Page en 1.0 8533729872.0
0.0 Waco_siege en 1.0 9163755.0
0.0 Main_Page en 1.0 8533729872.0
0.0 Main_Page en 1.0 8533729872.0
0.0 Special:UserLogin en 1.0 1047123130.0
0.0 Main_Page en 1.0 8533729872.0
0.0 Main_Page en 1.0 8533729872.0
0.0 ABBA en 1.0 8713740.0
0.0 Main_Page en 1.0 8533729872.0
0.0 Main_Page en 1.0 8533729872.0
0.0 Robert_Kardashian en 1.0 2702875.0
0.0 Main_Page en 1.0 8533729872.0
0.0 The_Conjuring en 1.0 10120031.0
0.0 Shaun_Livingston en 1.0 3527950.0
0.0 Deep_Note en 1.0 7286054.0
0.0 Special:BlankPage en 1.0 942340592.0
0.0 Chichijima_incident en 1.0 156777745.0
0.0 Main_Page en 1.0 8533729872.0
0.0 Cro-Magnon en 1.0 9883289.0
0.0 Special:UserLogin en 1.0 1047123130.0
0.0 Main_Page en 1.0 8533729872.0
0.0 Special:UserLogin en 1.0 1047123130.0
0.0 Special:Search en 1.0 108047570.0
0.0 Main_Page en 1.0 8533729872.0
0.0 Special:UserLogin en 1.0 1047123130.0
0.0 Special:BlankPage en 1.0 942340592.0
0.0 Special:BlankPage en 1.0 942340592.0
0.0 January_8 en 1.0 50914427.0
0.0 Main_Page en 1.0 8533729872.0
0.0 Main_Page en 1.0 8533729872.0
0.0 Main_Page en 1.0 8533729872.0
0.0 Main_Page en 1.0 8533729872.0
0.0 Baahubali:_The_Conclusion en 1.0 1948644.0
0.0 File:Matthew_Morrison_Peabody_2010_(cropped).jpg en 1.0 8598616.0
0.0 Star_Wars en 1.0 136598327.0
0.0 Main_Page en 1.0 8533729872.0
0.0 Special:UserLogin en 1.0 1047123130.0
0.0 Main_Page en 1.0 8533729872.0
0.0 Main_Page en 1.0 8533729872.0
0.0 Earthquake en 1.0 8371021.0
0.0 Main_Page en 1.0 8533729872.0
0.0 Rogue_One en 1.0 8428262.0
0.0 Main_Page en 1.0 8533729872.0
0.0 Main_Page en 1.0 8533729872.0
0.0 Special:BlankPage en 1.0 942340592.0
0.0 Tyga en 1.0 3618394.0
0.0 Java_(programming_language) en 1.0 9701848.0
0.0 Eternity_II_puzzle en 1.0 41705811.0
0.0 Main_Page en 1.0 8533729872.0
0.0 Instagram en 1.0 14244756.0
0.0 Lena_Headey en 1.0 3120018.0
0.0 Special:UserLogin en 1.0 1047123130.0
0.0 Special:UserLogin en 1.0 1047123130.0
0.0 Dilwale_(2015_film) en 1.0 24935892.0
0.0 Special:BlankPage en 1.0 942340592.0
0.0 Demat_account en 1.0 174061131.0
0.0 Main_Page en 1.0 8533729872.0
0.0 Main_Page en 1.0 8533729872.0
0.0 Main_Page en 1.0 8533729872.0
0.0 Post_Malone en 1.0 1300955.0
0.0 Main_Page en 1.0 8533729872.0
0.0 File:Theresa_Vail,_Miss_Kansas.jpg en 1.0 1741168.0
0.0 Amanda_Seyfried en 1.0 3818077.0
0.0 Special:UserLogin en 1.0 1047123130.0
0.0 Main_Page en 1.0 8533729872.0
0.0 Legend_(2015_film) en 1.0 5641907.0
0.0 Main_Page en 1.0 8533729872.0
0.0 Special:UserLogin en 1.0 1047123130.0
0.0 Main_Page en 1.0 8533729872.0
0.0 Heath_Ledger en 1.0 9161613.0
0.0 Main_Page en 1.0 8533729872.0
0.0 Main_Page en 1.0 8533729872.0
0.0 Main_Page en 1.0 8533729872.0
0.0 Eternity_II_puzzle en 1.0 41705811.0
0.0 Nanites en 1.0 22739120.0
0.0 Main_Page en 1.0 8533729872.0
0.0 Main_Page en 1.0 8533729872.0
0.0 Main_Page en 1.0 8533729872.0
0.0 Main_Page en 1.0 8533729872.0
0.0 Romanticism en 1.0 12192238.0
0.0 Main_Page en 1.0 8533729872.0
0.0 Step_Up_(film) en 1.0 3122295.0
0.0 Main_Page en 1.0 8533729872.0
0.0 Main_Page en 1.0 8533729872.0
0.0 Main_Page en 1.0 8533729872.0
0.0 Main_Page en 1.0 8533729872.0
0.0 Shades_of_Blue_(TV_series) en 1.0 10930701.0
0.0 Main_Page en 1.0 8533729872.0
0.0 Main_Page en 1.0 8533729872.0
0.0 Main_Page en 1.0 8533729872.0
0.0 Flipkart en 1.0 3768038.0
0.0 Special:BlankPage en 1.0 942340592.0
0.0 Main_Page en 1.0 8533729872.0
0.0 Main_Page en 1.0 8533729872.0
0.0 Main_Page en 1.0 8533729872.0
0.0 Main_Page en 1.0 8533729872.0
0.0 Brad_Pitt en 1.0 14747957.0
0.0 Main_Page en 1.0 8533729872.0
0.0 Scott_Peterson en 1.0 5620476.0
0.0 Shailene_Woodley en 1.0 3217804.0
0.0 Fuller_House_(TV_series) en 1.0 7993261.0
0.0 The_Revenant_(2015_film) en 1.0 59359352.0
0.0 Eternity_II_puzzle en 1.0 41705811.0
0.0 Main_Page en 1.0 8533729872.0
0.0 Main_Page en 1.0 8533729872.0
0.0 Winston_Churchill en 1.0 24834527.0
0.0 Main_Page en 1.0 8533729872.0
0.0 Main_Page en 1.0 8533729872.0
0.0 Main_Page en 1.0 8533729872.0
0.0 Leonardo_DiCaprio en 1.0 33724264.0
0.0 Special:BlankPage en 1.0 942340592.0
0.0 Main_Page en 1.0 8533729872.0
0.0 Water_pollution en 1.0 6020733.0
0.0 Main_Page en 1.0 8533729872.0
0.0 File:Evander_Holyfield_LA_2011.jpg en 1.0 175595651.0
0.0 Special:UserLogin en 1.0 1047123130.0
0.0 Eternity_II_puzzle en 1.0 41705811.0
0.0 Special:BlankPage en 1.0 942340592.0
0.0 Special:Search en 1.0 108047570.0
0.0 Main_Page en 1.0 8533729872.0
0.0 Main_Page en 1.0 8533729872.0
0.0 Main_Page en 1.0 8533729872.0
0.0 Special:UserLogin en 1.0 1047123130.0
0.0 Star_Wars_sequel_trilogy en 1.0 14648840.0
0.0 Taylor_Swift en 1.0 73911240.0
0.0 Special:UserLogin en 1.0 1047123130.0
0.0 Special:UserLogin en 1.0 1047123130.0
0.0 Main_Page en 1.0 8533729872.0
0.0 Special:UserLogin en 1.0 1047123130.0
0.0 Main_Page en 1.0 8533729872.0
0.0 Main_Page en 1.0 8533729872.0
0.0 Main_Page en 1.0 8533729872.0
0.0 Main_Page en 1.0 8533729872.0
0.0 Main_Page en 1.0 8533729872.0
0.0 Main_Page en 1.0 8533729872.0
0.0 Main_Page en 1.0 8533729872.0
0.0 Main_Page en 1.0 8533729872.0
0.0 Main_Page en 1.0 8533729872.0
0.0 Special:Search en 1.0 108047570.0
0.0 Main_Page en 1.0 8533729872.0
0.0 Star_Wars_Episode_I:_The_Phantom_Menace en 1.0 23505327.0
0.0 Nikola_Tesla en 1.0 26501479.0
0.0 Spectre_(2015_film) en 1.0 22761417.0
0.0 File:Bernard_Tomic_1,_Wimbledon_2013_-_Diliff.jpg en 1.0 1327365.0
0.0 Main_Page en 1.0 8533729872.0
0.0 List_of_Sherlock_episodes en 1.0 9927121.0
0.0 John_Boyega en 1.0 17504336.0
0.0 Main_Page en 1.0 8533729872.0
0.0 Main_Page en 1.0 8533729872.0
0.0 Main_Page en 1.0 8533729872.0
0.0 Main_Page en 1.0 8533729872.0
0.0 Main_Page en 1.0 8533729872.0
0.0 Special:BlankPage en 1.0 942340592.0
0.0 Main_Page en 1.0 8533729872.0
0.0 Main_Page en 1.0 8533729872.0
0.0 Main_Page en 1.0 8533729872.0
0.0 File:Donald_August_19_(cropped).jpg en 1.0 16354475.0
0.0 Main_Page en 1.0 8533729872.0
0.0 Main_Page en 1.0 8533729872.0
0.0 Kajol en 1.0 9106296.0
0.0 Main_Page en 1.0 8533729872.0
0.0 File:Michael_Jackson_in_1988.jpg en 1.0 6527560.0
0.0 Main_Page en 1.0 8533729872.0
0.0 Kris_Jenner en 1.0 2122428.0
0.0 Main_Page en 1.0 8533729872.0
0.0 Main_Page en 1.0 8533729872.0
0.0 Main_Page en 1.0 8533729872.0
0.0 Main_Page en 1.0 8533729872.0
0.0 Main_Page en 1.0 8533729872.0
0.0 Alphabet_Inc. en 1.0 2799301.0
0.0 Web_scraping en 1.0 28358326.0
0.0 File:Evander_Holyfield_LA_2011.jpg en 1.0 175595651.0
0.0 Main_Page en 1.0 8533729872.0
0.0 Main_Page en 1.0 8533729872.0
0.0 Main_Page en 1.0 8533729872.0
0.0 Main_Page en 1.0 8533729872.0
0.0 Demat_account en 1.0 174061131.0
0.0 Bruce_Kingsbury en 1.0 16659828.0
0.0 Main_Page en 1.0 8533729872.0
0.0 Kurt_Russell en 1.0 4947416.0
0.0 Eternity_II_puzzle en 1.0 41705811.0
0.0 Main_Page en 1.0 8533729872.0
0.0 Main_Page en 1.0 8533729872.0
0.0 United_Kingdom en 1.0 115345016.0
0.0 List_of_aircraft_of_World_War_II en 1.0 7941419.0
0.0 Main_Page en 1.0 8533729872.0
0.0 Main_Page en 1.0 8533729872.0
0.0 Main_Page en 1.0 8533729872.0
0.0 Chichijima_incident en 1.0 156777745.0
0.0 Main_Page en 1.0 8533729872.0
0.0 Chichijima_incident en 1.0 156777745.0
0.0 Antonov_An-32 en 1.0 14787770.0
0.0 File:Evander_Holyfield_LA_2011.jpg en 1.0 175595651.0
0.0 Special:BlankPage en 1.0 942340592.0
0.0 Main_Page en 1.0 8533729872.0
0.0 Special:UserLogin en 1.0 1047123130.0
0.0 Main_Page en 1.0 8533729872.0
0.0 Index.php en 1.0 5377671.0
0.0 Main_Page en 1.0 8533729872.0
0.0 Walton_Goggins en 1.0 3099425.0
0.0 Main_Page en 1.0 8533729872.0
0.0 Main_Page en 1.0 8533729872.0
0.0 Main_Page en 1.0 8533729872.0
0.0 Main_Page en 1.0 8533729872.0
0.0 Main_Page en 1.0 8533729872.0
0.0 Main_Page en 1.0 8533729872.0
0.0 Main_Page en 1.0 8533729872.0
0.0 File:Charlie_Hebdo_logo.svg en 1.0 12336839.0
0.0 69th_British_Academy_Film_Awards en 1.0 2713385.0
0.0 Web_scraping en 1.0 28358326.0
0.0 Main_Page en 1.0 8533729872.0
0.0 Main_Page en 1.0 8533729872.0
0.0 Main_Page en 1.0 8533729872.0
0.0 Main_Page en 1.0 8533729872.0
0.0 Main_Page en 1.0 8533729872.0
0.0 Special:BlankPage en 1.0 942340592.0
0.0 Special:UserLogin en 1.0 1047123130.0
0.0 The_Blacklist_(TV_series) en 1.0 15236835.0
0.0 Main_Page en 1.0 8533729872.0
0.0 Main_Page en 1.0 8533729872.0
0.0 Lip_Sync_Battle en 1.0 17720380.0
0.0 Salman_Khan en 1.0 11181616.0
0.0 List_of_Game_of_Thrones_episodes en 1.0 7465213.0
0.0 Java_(programming_language) en 1.0 9701848.0
0.0 Main_Page en 1.0 8533729872.0
0.0 Main_Page en 1.0 8533729872.0
0.0 Mark_Ruffalo en 1.0 4737772.0
0.0 Main_Page en 1.0 8533729872.0
0.0 Main_Page en 1.0 8533729872.0
0.0 Main_Page en 1.0 8533729872.0
0.0 Special:Search en 1.0 108047570.0
0.0 Demat_account en 1.0 174061131.0
0.0 Unit_731 en 1.0 36593723.0
0.0 Main_Page en 1.0 8533729872.0
0.0 Main_Page en 1.0 8533729872.0
0.0 Main_Page en 1.0 8533729872.0
0.0 Main_Page en 1.0 8533729872.0
0.0 Rafael_dos_Anjos en 1.0 16916167.0
0.0 Main_Page en 1.0 8533729872.0
0.0 Special:BlankPage en 1.0 942340592.0
0.0 Main_Page en 1.0 8533729872.0
0.0 Main_Page en 1.0 8533729872.0
0.0 Leonardo_DiCaprio en 1.0 33724264.0
0.0 Main_Page en 1.0 8533729872.0
0.0 2015_in_film en 1.0 110436486.0
0.0 Uber_(company) en 1.0 10152765.0
0.0 Main_Page en 1.0 8533729872.0
0.0 Main_Page en 1.0 8533729872.0
0.0 Special:BlankPage en 1.0 942340592.0
0.0 Making_a_Murderer en 1.0 33144160.0
0.0 Special:BlankPage en 1.0 942340592.0
0.0 Main_Page en 1.0 8533729872.0
0.0 Web_scraping en 1.0 28358326.0
0.0 United_Kingdom en 1.0 115345016.0
0.0 Main_Page en 1.0 8533729872.0
0.0 Special:BlankPage en 1.0 942340592.0
0.0 Main_Page en 1.0 8533729872.0
0.0 Unbreakable_Kimmy_Schmidt en 1.0 3039042.0
0.0 Special:HideBanners en 1.0 0.0
0.0 Special:UserLogin en 1.0 1047123130.0
0.0 Main_Page en 1.0 8533729872.0
0.0 Main_Page en 1.0 8533729872.0
0.0 Main_Page en 1.0 8533729872.0
0.0 Terry_Crews en 1.0 3951109.0
0.0 Main_Page en 1.0 8533729872.0
0.0 Main_Page en 1.0 8533729872.0
0.0 Main_Page en 1.0 8533729872.0
0.0 Main_Page en 1.0 8533729872.0
0.0 Java_(programming_language) en 1.0 9701848.0
0.0 Nenu_Sailaja en 1.0 1788997.0
0.0 Main_Page en 1.0 8533729872.0
0.0 Special:BlankPage en 1.0 942340592.0
0.0 Main_Page en 1.0 8533729872.0
0.0 Special:BlankPage en 1.0 942340592.0
0.0 Main_Page en 1.0 8533729872.0
0.0 Main_Page en 1.0 8533729872.0
0.0 Main_Page en 1.0 8533729872.0
0.0 Main_Page en 1.0 8533729872.0
0.0 Main_Page en 1.0 8533729872.0
0.0 File:Evander_Holyfield_LA_2011.jpg en 1.0 175595651.0
0.0 Main_Page en 1.0 8533729872.0
0.0 Special:UserLogin en 1.0 1047123130.0
0.0 Special:UserLogin en 1.0 1047123130.0
0.0 Natalie_Dormer en 1.0 8374604.0
0.0 Main_Page en 1.0 8533729872.0
0.0 Demat_account en 1.0 174061131.0
0.0 Fifty_Shades_of_Grey en 1.0 6224422.0
0.0 Main_Page en 1.0 8533729872.0
0.0 Chichijima_incident en 1.0 156777745.0
0.0 Main_Page en 1.0 8533729872.0
0.0 Main_Page en 1.0 8533729872.0
0.0 Main_Page en 1.0 8533729872.0
0.0 Serbia en 1.0 22226064.0
0.0 Main_Page en 1.0 8533729872.0
0.0 The_Forest_(2016_film) en 1.0 11222918.0
0.0 Led_Zeppelin en 1.0 11807463.0
0.0 Main_Page en 1.0 8533729872.0
0.0 Chichijima_incident en 1.0 156777745.0
0.0 Main_Page en 1.0 8533729872.0
0.0 Chichijima_incident en 1.0 156777745.0
0.0 Main_Page en 1.0 8533729872.0
0.0 Main_Page en 1.0 8533729872.0
0.0 List_of_TCP_and_UDP_port_numbers en 1.0 31413508.0
0.0 Special:UserLogin en 1.0 1047123130.0
0.0 Scream_Queens_(2015_TV_series) en 1.0 8288096.0
0.0 Special:UserLogin en 1.0 1047123130.0
0.0 Main_Page en 1.0 8533729872.0
0.0 Star_Wars:_The_Force_Awakens en 1.0 360319666.0
0.0 Lionel_Messi en 1.0 95764036.0
0.0 Tourette_syndrome en 1.0 5842943.0
0.0 List_of_emoticons en 1.0 3074514.0
0.0 List_of_highest-grossing_films en 1.0 167724226.0
0.0 Special:Search en 1.0 108047570.0
0.0 Boeing_WC-135_Constant_Phoenix en 1.0 1832011.0
0.0 Main_Page en 1.0 8533729872.0
0.0 Main_Page en 1.0 8533729872.0
0.0 File:Aamir_Khan_March_2015.jpg en 1.0 4716747.0
0.0 Main_Page en 1.0 8533729872.0
0.0 Main_Page en 1.0 8533729872.0
0.0 Special:BlankPage en 1.0 942340592.0
0.0 Main_Page en 1.0 8533729872.0
0.0 Iron_Jacket en 1.0 6629539.0
0.0 Main_Page en 1.0 8533729872.0
0.0 Main_Page en 1.0 8533729872.0
0.0 Main_Page en 1.0 8533729872.0
0.0 Main_Page en 1.0 8533729872.0
0.0 Main_Page en 1.0 8533729872.0
0.0 List_of_Star_Wars_characters en 1.0 11200128.0
0.0 Web_scraping en 1.0 28358326.0
0.0 Main_Page en 1.0 8533729872.0
0.0 Special:UserLogin en 1.0 1047123130.0
0.0 Attack_on_Titan en 1.0 12726369.0
0.0 Main_Page en 1.0 8533729872.0
0.0 Special:BlankPage en 1.0 942340592.0
0.0 Main_Page en 1.0 8533729872.0
0.0 Boeing_777 en 1.0 10428832.0
0.0 Blindspot_(TV_series) en 1.0 4365649.0
0.0 Main_Page en 1.0 8533729872.0
0.0 January_8 en 1.0 50914427.0
0.0 Demat_account en 1.0 174061131.0
0.0 Main_Page en 1.0 8533729872.0
0.0 UFC_Fight_Night:_Silva_vs._Bisping en 1.0 2142058.0
0.0 Regular_expression en 1.0 6192767.0
0.0 Main_Page en 1.0 8533729872.0
0.0 Main_Page en 1.0 8533729872.0
0.0 South_Korea en 1.0 83088561.0
0.0 Chichijima_incident en 1.0 156777745.0
0.0 Special:BlankPage en 1.0 942340592.0
0.0 Main_Page en 1.0 8533729872.0
0.0 Shakira en 1.0 11109490.0
0.0 Main_Page en 1.0 8533729872.0
0.0 North_Korea en 1.0 118851507.0
0.0 Bigg_Boss_9 en 1.0 4344672.0
0.0 File:Evander_Holyfield_LA_2011.jpg en 1.0 175595651.0
0.0 Main_Page en 1.0 8533729872.0
0.0 Special:Search en 1.0 108047570.0
0.0 Special:UserLogin en 1.0 1047123130.0
0.0 Star_Wars:_The_Force_Awakens en 1.0 360319666.0
0.0 Main_Page en 1.0 8533729872.0
0.0 Main_Page en 1.0 8533729872.0
0.0 Main_Page en 1.0 8533729872.0
0.0 Special:UserLogin en 1.0 1047123130.0
0.0 List_of_Pok%C3%A9mon_episodes en 1.0 10939772.0
0.0 Special:BlankPage en 1.0 942340592.0
0.0 Flush_toilet en 1.0 19101791.0
0.0 Main_Page en 1.0 8533729872.0
0.0 George_Soros en 1.0 14610841.0
0.0 Main_Page en 1.0 8533729872.0
0.0 File:Crilogo.jpg en 1.0 5759262.0
0.0 Main_Page en 1.0 8533729872.0
0.0 Channing_Tatum en 1.0 21674983.0
0.0 Main_Page en 1.0 8533729872.0
0.0 File:RR1-_Dell_Campus.jpg en 1.0 2219280.0
0.0 Main_Page en 1.0 8533729872.0
0.0 Special:UserLogin en 1.0 1047123130.0
0.0 Star_Wars:_The_Force_Awakens en 1.0 360319666.0
0.0 Future_(rapper) en 1.0 2423398.0
0.0 Main_Page en 1.0 8533729872.0
0.0 Deep_Note en 1.0 7286054.0
0.0 Main_Page en 1.0 8533729872.0
0.0 Main_Page en 1.0 8533729872.0
0.0 Bajirao_I en 1.0 18185555.0
0.0 Special:UserLogin en 1.0 1047123130.0
0.0 Main_Page en 1.0 8533729872.0
0.0 Special:UserLogin en 1.0 1047123130.0
0.0 Main_Page en 1.0 8533729872.0
0.0 Main_Page en 1.0 8533729872.0
0.0 Main_Page en 1.0 8533729872.0
0.0 Mackenzie_Phillips en 1.0 2540805.0
0.0 Main_Page en 1.0 8533729872.0
0.0 Main_Page en 1.0 8533729872.0
0.0 Main_Page en 1.0 8533729872.0
0.0 Main_Page en 1.0 8533729872.0
0.0 Miss_Universe en 1.0 5377791.0
0.0 Main_Page en 1.0 8533729872.0
0.0 Special:BlankPage en 1.0 942340592.0
0.0 Main_Page en 1.0 8533729872.0
0.0 Creamy_layer en 1.0 2445595.0
0.0 Main_Page en 1.0 8533729872.0
0.0 Global_warming en 1.0 30957222.0
0.0 Mark_Zuckerberg en 1.0 18975903.0
0.0 Special:BlankPage en 1.0 942340592.0
0.0 Main_Page en 1.0 8533729872.0
0.0 Chichijima_incident en 1.0 156777745.0
0.0 Daniel_Day-Lewis en 1.0 5554978.0
0.0 Charlie_Hebdo en 1.0 7244117.0
0.0 The_Abominable_Bride en 1.0 4860256.0
0.0 Main_Page en 1.0 8533729872.0
0.0 Wazir_(film) en 1.0 28376882.0
0.0 Mawra_Hocane en 1.0 2128050.0
0.0 Search_engine_optimization en 1.0 9979045.0
0.0 Star_Wars:_The_Force_Awakens en 1.0 360319666.0
0.0 Special:BlankPage en 1.0 942340592.0
0.0 Special:UserLogin en 1.0 1047123130.0
0.0 Gigi_Hadid en 1.0 13273495.0
0.0 Pierre_Boulez en 1.0 15629412.0
0.0 Main_Page en 1.0 8533729872.0
0.0 Dilwale_(2015_film) en 1.0 24935892.0
0.0 Pretty_Little_Liars_(season_6) en 1.0 4818912.0
0.0 Special:Search en 1.0 108047570.0
0.0 Margaret_Sanger en 1.0 36051908.0
0.0 Main_Page en 1.0 8533729872.0
0.0 Main_Page en 1.0 8533729872.0
0.0 Main_Page en 1.0 8533729872.0
0.0 Special:UserLogin en 1.0 1047123130.0
0.0 Thermonuclear_weapon en 1.0 70269413.0
0.0 Special:BlankPage en 1.0 942340592.0
0.0 Cephalopod en 1.0 103351379.0
0.0 List_of_2016_albums en 1.0 6608271.0
0.0 Special:BlankPage en 1.0 942340592.0
0.0 List_of_most_viewed_YouTube_videos en 1.0 9109804.0
0.0 Main_Page en 1.0 8533729872.0
0.0 Category:All_articles_needing_additional_references en 1.0 19698128.0
0.0 Main_Page en 1.0 8533729872.0
0.0 Seth_Curry en 1.0 3751733.0
0.0 Special:UserLogin en 1.0 1047123130.0
0.0 Pterosaur en 1.0 32697340.0
0.0 Tokyo_Ghoul en 1.0 4890964.0
0.0 Special:BlankPage en 1.0 942340592.0
0.0 Main_Page en 1.0 8533729872.0
0.0 Main_Page en 1.0 8533729872.0
0.0 Main_Page en 1.0 8533729872.0
0.0 Main_Page en 1.0 8533729872.0
0.0 Main_Page en 1.0 8533729872.0
0.0 Main_Page en 1.0 8533729872.0
0.0 Main_Page en 1.0 8533729872.0
0.0 Main_Page en 1.0 8533729872.0
0.0 Main_Page en 1.0 8533729872.0
0.0 Main_Page en 1.0 8533729872.0
0.0 Main_Page en 1.0 8533729872.0
0.0 Main_Page en 1.0 8533729872.0
0.0 Main_Page en 1.0 8533729872.0
0.0 David_Bowie en 1.0 103675600.0
0.0 Main_Page en 1.0 8533729872.0
0.0 Special:BlankPage en 1.0 942340592.0
0.0 Libya en 1.0 15680240.0
0.0 Special:UserLogin en 1.0 1047123130.0
0.0 Main_Page en 1.0 8533729872.0
0.0 Main_Page en 1.0 8533729872.0
0.0 Main_Page en 1.0 8533729872.0
0.0 File:Evander_Holyfield_LA_2011.jpg en 1.0 175595651.0
0.0 Endangered_species en 1.0 16635246.0
0.0 Main_Page en 1.0 8533729872.0
0.0 File:Evander_Holyfield_LA_2011.jpg en 1.0 175595651.0
0.0 Main_Page en 1.0 8533729872.0
0.0 Shiva en 1.0 10458367.0
0.0 Main_Page en 1.0 8533729872.0
0.0 Main_Page en 1.0 8533729872.0
0.0 Main_Page en 1.0 8533729872.0
0.0 File:Donald_August_19_(cropped).jpg en 1.0 16354475.0
0.0 Special:UserLogin en 1.0 1047123130.0
0.0 Main_Page en 1.0 8533729872.0
0.0 Main_Page en 1.0 8533729872.0
0.0 Main_Page en 1.0 8533729872.0
0.0 Czech_Republic en 1.0 18593732.0
0.0 Main_Page en 1.0 8533729872.0
0.0 Web_scraping en 1.0 28358326.0
0.0 Han_Solo en 1.0 4717012.0
0.0 Deaths_in_January_2016 en 1.0 3766601.0
0.0 Special:Search en 1.0 108047570.0
0.0 Scrum_(software_development) en 1.0 5646236.0
0.0 Special:UserLogin en 1.0 1047123130.0
0.0 Main_Page en 1.0 8533729872.0
0.0 Special:UserLogin en 1.0 1047123130.0
0.0 Main_Page en 1.0 8533729872.0
0.0 Main_Page en 1.0 8533729872.0
0.0 Main_Page en 1.0 8533729872.0
0.0 Main_Page en 1.0 8533729872.0
0.0 Main_Page en 1.0 8533729872.0
0.0 Special:BlankPage en 1.0 942340592.0
0.0 Main_Page en 1.0 8533729872.0
0.0 Atlas_Mountains en 1.0 8732818.0
0.0 Enfield_Poltergeist en 1.0 6505949.0
0.0 Main_Page en 1.0 8533729872.0
0.0 Main_Page en 1.0 8533729872.0
0.0 Main_Page en 1.0 8533729872.0
0.0 Chichijima_incident en 1.0 156777745.0
0.0 Main_Page en 1.0 8533729872.0
0.0 Hard_disk_drive en 1.0 9848876.0
0.0 Main_Page en 1.0 8533729872.0
0.0 Eternity_II_puzzle en 1.0 41705811.0
0.0 Special:HideBanners en 1.0 0.0
0.0 File:Evander_Holyfield_LA_2011.jpg en 1.0 175595651.0
0.0 Keegan-Michael_Key en 1.0 2747482.0
0.0 Main_Page en 1.0 8533729872.0
0.0 Main_Page en 1.0 8533729872.0
0.0 Royal_Rumble_(2016) en 1.0 8465848.0
0.0 Special:BlankPage en 1.0 942340592.0
0.0 Main_Page en 1.0 8533729872.0
0.0 Main_Page en 1.0 8533729872.0
0.0 Ddd en 1.0 56799834.0
0.0 Main_Page en 1.0 8533729872.0
0.0 Main_Page en 1.0 8533729872.0
0.0 Main_Page en 1.0 8533729872.0
0.0 File:Evander_Holyfield_LA_2011.jpg en 1.0 175595651.0
0.0 Bikini en 1.0 177244701.0
0.0 Special:Search en 1.0 108047570.0
0.0 Main_Page en 1.0 8533729872.0
0.0 Jack_Kemp en 1.0 81996823.0
0.0 Main_Page en 1.0 8533729872.0
0.0 The_Revenant_(2015_film) en 1.0 59359352.0
0.0 File:Evander_Holyfield_LA_2011.jpg en 1.0 175595651.0
0.0 Special:BlankPage en 1.0 942340592.0
0.0 Main_Page en 1.0 8533729872.0
0.0 Main_Page en 1.0 8533729872.0
0.0 Main_Page en 1.0 8533729872.0
0.0 Main_Page en 1.0 8533729872.0
0.0 The_Increasingly_Poor_Decisions_of_Todd_Margaret en 1.0 3010323.0
0.0 Main_Page en 1.0 8533729872.0
0.0 Special:UserLogin en 1.0 1047123130.0
0.0 Special:BlankPage en 1.0 942340592.0
0.0 Special:BlankPage en 1.0 942340592.0
0.0 The_Hateful_Eight en 1.0 37973477.0
0.0 File:Evander_Holyfield_LA_2011.jpg en 1.0 175595651.0
0.0 James_Deen en 1.0 8416597.0
0.0 Main_Page en 1.0 8533729872.0
0.0 Main_Page en 1.0 8533729872.0
0.0 Bones_(TV_series) en 1.0 5827474.0
0.0 One-Punch_Man en 1.0 14955107.0
0.0 Main_Page en 1.0 8533729872.0
0.0 Main_Page en 1.0 8533729872.0
0.0 Main_Page en 1.0 8533729872.0
0.0 The_Big_Short_(film) en 1.0 17303600.0
0.0 Main_Page en 1.0 8533729872.0
0.0 Main_Page en 1.0 8533729872.0
0.0 Special:BlankPage en 1.0 942340592.0
0.0 Main_Page en 1.0 8533729872.0
0.0 Main_Page en 1.0 8533729872.0
0.0 Main_Page en 1.0 8533729872.0
0.0 List_of_The_Flash_(2014_TV_series)_episodes en 1.0 18717375.0
0.0 Chichijima_incident en 1.0 156777745.0
0.0 Special:BlankPage en 1.0 942340592.0
0.0 Main_Page en 1.0 8533729872.0
0.0 Main_Page en 1.0 8533729872.0
0.0 Main_Page en 1.0 8533729872.0
0.0 Main_Page en 1.0 8533729872.0
0.0 wiki//en.wikibooks.org/wiki/special:search/wiki/w/index.php en 1.0 4014127.0
0.0 Main_Page en 1.0 8533729872.0
0.0 Main_Page en 1.0 8533729872.0
0.0 Bikini en 1.0 177244701.0
0.0 The_Last_Supper_(Leonardo_da_Vinci) en 1.0 18848161.0
0.0 Special:Search en 1.0 108047570.0
0.0 Main_Page en 1.0 8533729872.0
0.0 Main_Page en 1.0 8533729872.0
0.0 Special:UserLogin en 1.0 1047123130.0
0.0 Main_Page en 1.0 8533729872.0
0.0 Samuel_L._Jackson en 1.0 12861490.0
0.0 Special:UserLogin en 1.0 1047123130.0
0.0 Main_Page en 1.0 8533729872.0
0.0 Main_Page en 1.0 8533729872.0
0.0 Special:BlankPage en 1.0 942340592.0
0.0 Special:BlankPage en 1.0 942340592.0
0.0 Main_Page en 1.0 8533729872.0
0.0 Main_Page en 1.0 8533729872.0
0.0 Angel_from_Hell en 1.0 7619050.0
0.0 Main_Page en 1.0 8533729872.0
0.0 Main_Page en 1.0 8533729872.0
0.0 Lyrics en 1.0 15315991.0
0.0 Special:BlankPage en 1.0 942340592.0
0.0 List_of_highest-grossing_films en 1.0 167724226.0
0.0 Main_Page en 1.0 8533729872.0
0.0 Main_Page en 1.0 8533729872.0
0.0 Bajirao_Mastani_(film) en 1.0 4243981.0
0.0 Main_Page en 1.0 8533729872.0
0.0 Main_Page en 1.0 8533729872.0
0.0 Main_Page en 1.0 8533729872.0
0.0 Special:Search en 1.0 108047570.0
0.0 Main_Page en 1.0 8533729872.0
0.0 List_of_Modern_Family_episodes en 1.0 11833210.0
0.0 List_of_Steven_Universe_episodes en 1.0 46549233.0
0.0 Main_Page en 1.0 8533729872.0
0.0 Tom_Clancy%27s_The_Division en 1.0 2777277.0
0.0 United_Nations_Development_Programme en 1.0 4119776.0
0.0 Chichijima_incident en 1.0 156777745.0
0.0 Main_Page en 1.0 8533729872.0
0.0 Main_Page en 1.0 8533729872.0
0.0 Main_Page en 1.0 8533729872.0
0.0 Jakarta en 1.0 11790638.0
0.0 Main_Page en 1.0 8533729872.0
0.0 Main_Page en 1.0 8533729872.0
0.0 Main_Page en 1.0 8533729872.0
0.0 WWE en 1.0 6750910.0
0.0 Main_Page en 1.0 8533729872.0
0.0 Cricket en 1.0 11130371.0
0.0 Zayn_Malik en 1.0 14768160.0
0.0 Indian_rupee en 1.0 20469125.0
0.0 Main_Page en 1.0 8533729872.0
0.0 Main_Page en 1.0 8533729872.0
0.0 Special:BlankPage en 1.0 942340592.0
0.0 Main_Page en 1.0 8533729872.0
0.0 Main_Page en 1.0 8533729872.0
0.0 Main_Page en 1.0 8533729872.0
0.0 Special:BlankPage en 1.0 942340592.0
0.0 Special:UserLogin en 1.0 1047123130.0
0.0 Bikini en 1.0 177244701.0
0.0 Main_Page en 1.0 8533729872.0
0.0 Main_Page en 1.0 8533729872.0
0.0 Main_Page en 1.0 8533729872.0
0.0 Special:BlankPage en 1.0 942340592.0
0.0 Mons_pubis en 1.0 3267554.0
0.0 Vikings en 1.0 14149662.0
0.0 CM_Punk en 1.0 13906615.0
0.0 Main_Page en 1.0 8533729872.0
0.0 Main_Page en 1.0 8533729872.0
0.0 Special:BlankPage en 1.0 942340592.0
0.0 Black_Mass_(film) en 1.0 4630597.0
0.0 Much_Ado_About_Nothing en 1.0 40783320.0
0.0 Main_Page en 1.0 8533729872.0
0.0 Main_Page en 1.0 8533729872.0
0.0 Pink_Floyd en 1.0 27416243.0
0.0 Main_Page en 1.0 8533729872.0
0.0 Main_Page en 1.0 8533729872.0
0.0 Main_Page en 1.0 8533729872.0
0.0 Main_Page en 1.0 8533729872.0
0.0 Main_Page en 1.0 8533729872.0
0.0 Main_Page en 1.0 8533729872.0
0.0 Special:BlankPage en 1.0 942340592.0
0.0 The_Good_Dinosaur en 1.0 7419846.0
0.0 Main_Page en 1.0 8533729872.0
0.0 Main_Page en 1.0 8533729872.0
0.0 Chichijima_incident en 1.0 156777745.0
0.0 Stanford_University en 1.0 423477444.0
0.0 Special:UserLogin en 1.0 1047123130.0
0.0 Main_Page en 1.0 8533729872.0
0.0 Special:UserLogin en 1.0 1047123130.0
0.0 Main_Page en 1.0 8533729872.0
0.0 Main_Page en 1.0 8533729872.0
0.0 Main_Page en 1.0 8533729872.0
0.0 Java_(programming_language) en 1.0 9701848.0
0.0 Main_Page en 1.0 8533729872.0
0.0 Zaire en 1.0 11293488.0
0.0 Incoterms en 1.0 3279661.0
0.0 Washington,_D.C. en 1.0 17649562.0
0.0 Special:BlankPage en 1.0 942340592.0
0.0 AK-47 en 1.0 11670508.0
0.0 Main_Page en 1.0 8533729872.0
0.0 Main_Page en 1.0 8533729872.0
0.0 Ben_Affleck en 1.0 19730633.0
0.0 Main_Page en 1.0 8533729872.0
0.0 Cephalopod en 1.0 103351379.0
0.0 Chikki_Panday en 1.0 4896357.0
0.0 Charlie_Hebdo_shooting en 1.0 24641402.0
0.0 Main_Page en 1.0 8533729872.0
0.0 Main_Page en 1.0 8533729872.0
0.0 Main_Page en 1.0 8533729872.0
0.0 Main_Page en 1.0 8533729872.0
0.0 Main_Page en 1.0 8533729872.0
0.0 Main_Page en 1.0 8533729872.0
0.0 Main_Page en 1.0 8533729872.0
0.0 Kim_Jong-un en 1.0 55847144.0
0.0 Main_Page en 1.0 8533729872.0
0.0 Cancer en 1.0 13407293.0
0.0 Main_Page en 1.0 8533729872.0
0.0 Main_Page en 1.0 8533729872.0
0.0 Mahabharata en 1.0 8078985.0
0.0 Special:UserLogin en 1.0 1047123130.0
0.0 Damian_Lewis en 1.0 2313360.0
0.0 Main_Page en 1.0 8533729872.0
0.0 Melania_Trump en 1.0 4730234.0
0.0 File:Evander_Holyfield_LA_2011.jpg en 1.0 175595651.0
0.0 Main_Page en 1.0 8533729872.0
0.0 Main_Page en 1.0 8533729872.0
0.0 Java_(programming_language) en 1.0 9701848.0
0.0 Main_Page en 1.0 8533729872.0
0.0 Main_Page en 1.0 8533729872.0
0.0 Java_(programming_language) en 1.0 9701848.0
0.0 Main_Page en 1.0 8533729872.0
0.0 Bajirao_Mastani en 1.0 24566641.0
0.0 Main_Page en 1.0 8533729872.0
0.0 Main_Page en 1.0 8533729872.0
0.0 File:Perth_skyline_2.jpg en 1.0 1306444.0
0.0 Main_Page en 1.0 8533729872.0
0.0 Bajirao_Mastani en 1.0 24566641.0
0.0 Blackstar_(David_Bowie_album) en 1.0 16152081.0
0.0 Benjamin_Disraeli en 1.0 52939182.0
0.0 Main_Page en 1.0 8533729872.0
0.0 Main_Page en 1.0 8533729872.0
0.0 Secure_Shell en 1.0 8908384.0
0.0 Main_Page en 1.0 8533729872.0
0.0 Quantico_(TV_series) en 1.0 20830380.0
0.0 Kristen_Stewart en 1.0 6597089.0
0.0 Vera_Farmiga en 1.0 5062939.0
0.0 Main_Page en 1.0 8533729872.0
0.0 Bikini en 1.0 177244701.0
0.0 Main_Page en 1.0 8533729872.0
0.0 The_Merchant_of_Venice en 1.0 4738624.0
0.0 Main_Page en 1.0 8533729872.0
0.0 Main_Page en 1.0 8533729872.0
0.0 Main_Page en 1.0 8533729872.0
0.0 Main_Page en 1.0 8533729872.0
0.0 Ralph_Waldo_Emerson en 1.0 16556229.0
0.0 Main_Page en 1.0 8533729872.0
0.0 Main_Page en 1.0 8533729872.0
0.0 Main_Page en 1.0 8533729872.0
0.0 Chichijima_incident en 1.0 156777745.0
0.0 Chichijima_incident en 1.0 156777745.0
0.0 Facebook en 1.0 118029963.0
0.0 Main_Page en 1.0 8533729872.0
0.0 List_of_How_to_Get_Away_with_Murder_episodes en 1.0 3191729.0
0.0 Main_Page en 1.0 8533729872.0
0.0 Special:UserLogin en 1.0 1047123130.0
0.0 Special:BlankPage en 1.0 942340592.0
0.0 Main_Page en 1.0 8533729872.0
0.0 Poppy_Drayton en 1.0 2280595.0
0.0 Main_Page en 1.0 8533729872.0
0.0 Main_Page en 1.0 8533729872.0
0.0 Special:Watchlist en 1.0 76035929.0
0.0 Special:BlankPage en 1.0 942340592.0
0.0 Chelsea_F.C. en 1.0 16190087.0
0.0 Main_Page en 1.0 8533729872.0
0.0 Donald_Trump en 1.0 115639487.0
0.0 NITI_Aayog en 1.0 2459453.0
0.0 Main_Page en 1.0 8533729872.0
0.0 Main_Page en 1.0 8533729872.0
0.0 Main_Page en 1.0 8533729872.0
0.0 Main_Page en 1.0 8533729872.0
0.0 Main_Page en 1.0 8533729872.0
0.0 Main_Page en 1.0 8533729872.0
0.0 Joy_Mangano en 1.0 7558489.0
0.0 Special:UserLogin en 1.0 1047123130.0
0.0 Main_Page en 1.0 8533729872.0
0.0 Main_Page en 1.0 8533729872.0
0.0 Burnt_(film) en 1.0 3003228.0
0.0 Syria en 1.0 28869884.0
0.0 Hugh_Jackman en 1.0 7018245.0
0.0 Special:Search en 1.0 108047570.0
0.0 Hu_Di en 1.0 4928028.0
0.0 Main_Page en 1.0 8533729872.0
0.0 Main_Page en 1.0 8533729872.0
0.0 Demat_account en 1.0 174061131.0
0.0 Cephalopod en 1.0 103351379.0
0.0 Main_Page en 1.0 8533729872.0
0.0 Main_Page en 1.0 8533729872.0
0.0 Historiography_of_science en 1.0 10124868.0
0.0 Main_Page en 1.0 8533729872.0
0.0 Main_Page en 1.0 8533729872.0
0.0 Linux en 1.0 18432092.0
0.0 Chrissy_Teigen en 1.0 6709919.0
0.0 Main_Page en 1.0 8533729872.0
0.0 New_Year%27s_Eve_sexual_assaults_in_Germany en 1.0 29613078.0
0.0 Christopher_Lee en 1.0 7551956.0
0.0 Special:UserLogin en 1.0 1047123130.0
0.0 Main_Page en 1.0 8533729872.0
0.0 Main_Page en 1.0 8533729872.0
0.0 Special:BlankPage en 1.0 942340592.0
0.0 Main_Page en 1.0 8533729872.0
0.0 Main_Page en 1.0 8533729872.0
0.0 Main_Page en 1.0 8533729872.0
0.0 Main_Page en 1.0 8533729872.0
0.0 Main_Page en 1.0 8533729872.0
0.0 Main_Page en 1.0 8533729872.0
0.0 Main_Page en 1.0 8533729872.0
0.0 John_Krasinski en 1.0 8940412.0
0.0 Makar_Sankranti en 1.0 7479861.0
0.0 Main_Page en 1.0 8533729872.0
0.0 Main_Page en 1.0 8533729872.0
0.0 Main_Page en 1.0 8533729872.0
0.0 Main_Page en 1.0 8533729872.0
0.0 List_of_Steven_Universe_episodes en 1.0 46549233.0
0.0 Main_Page en 1.0 8533729872.0
0.0 Special:BlankPage en 1.0 942340592.0
0.0 Main_Page en 1.0 8533729872.0
0.0 Main_Page en 1.0 8533729872.0
0.0 Main_Page en 1.0 8533729872.0
0.0 Main_Page en 1.0 8533729872.0
0.0 Main_Page en 1.0 8533729872.0
0.0 Category%3aWikiProject_Albums_articles en 1.0 3168831.0
0.0 Main_Page en 1.0 8533729872.0
0.0 Special:BlankPage en 1.0 942340592.0
0.0 Main_Page en 1.0 8533729872.0
0.0 Special:BlankPage en 1.0 942340592.0
0.0 Special:BlankPage en 1.0 942340592.0
0.0 Main_Page en 1.0 8533729872.0
0.0 Sh%C5%8Djotachi_wa_K%C5%8Dya_o_Mezasu en 1.0 1515470.0
0.0 Main_Page en 1.0 8533729872.0
0.0 List_of_Arrow_episodes en 1.0 31274243.0
0.0 Main_Page en 1.0 8533729872.0
0.0 Main_Page en 1.0 8533729872.0
0.0 File:Evander_Holyfield_LA_2011.jpg en 1.0 175595651.0
0.0 Java_(programming_language) en 1.0 9701848.0
0.0 David_Bowie en 1.0 103675600.0
0.0 Main_Page en 1.0 8533729872.0
0.0 Muammar_Gaddafi en 1.0 22477167.0
0.0 Main_Page en 1.0 8533729872.0
0.0 Chichijima_incident en 1.0 156777745.0
0.0 .rss en 1.0 49554765.0
0.0 Main_Page en 1.0 8533729872.0
0.0 Demat_account en 1.0 174061131.0
0.0 Chichijima_incident en 1.0 156777745.0
0.0 Main_Page en 1.0 8533729872.0
0.0 X-Men:_Apocalypse en 1.0 9912554.0
0.0 Special:BlankPage en 1.0 942340592.0
0.0 The_Revenant_(2015_film) en 1.0 59359352.0
0.0 Hank_Johnson en 1.0 4150522.0
0.0 Special:UserLogin en 1.0 1047123130.0
0.0 Main_Page en 1.0 8533729872.0
0.0 Special:BlankPage en 1.0 942340592.0
0.0 Main_Page en 1.0 8533729872.0
0.0 Dennis_Rodman en 1.0 9267121.0
0.0 Battle_of_New_Orleans en 1.0 37927987.0
0.0 Social_media en 1.0 11515591.0
0.0 Main_Page en 1.0 8533729872.0
0.0 Main_Page en 1.0 8533729872.0
0.0 Main_Page en 1.0 8533729872.0
0.0 Main_Page en 1.0 8533729872.0
0.0 Atlas_Mountains en 1.0 8732818.0
0.0 Main_Page en 1.0 8533729872.0
0.0 RMS_Titanic en 1.0 13783654.0
0.0 Main_Page en 1.0 8533729872.0
0.0 Special:BlankPage en 1.0 942340592.0
0.0 Main_Page en 1.0 8533729872.0
0.0 Special:Search en 1.0 108047570.0
0.0 Main_Page en 1.0 8533729872.0
0.0 Special:UserLogin en 1.0 1047123130.0
0.0 Main_Page en 1.0 8533729872.0
0.0 Main_Page en 1.0 8533729872.0
0.0 Chris_Kyle en 1.0 17818194.0
0.0 Main_Page en 1.0 8533729872.0
0.0 Hillary_Clinton_presidential_campaign,_2016 en 1.0 1013768180.0
0.0 List_of_Lip_Sync_Battle_episodes en 1.0 9514977.0
0.0 Special:UserLogin en 1.0 1047123130.0
0.0 File:Evander_Holyfield_LA_2011.jpg en 1.0 175595651.0
0.0 Demat_account en 1.0 174061131.0
0.0 Farrah_Abraham en 1.0 2092469.0
0.0 Main_Page en 1.0 8533729872.0
0.0 Egypt en 1.0 30268748.0
0.0 Special:UserLogin en 1.0 1047123130.0
0.0 File:New_York_Stock_Exchange,_Wall_Street.jpg en 1.0 2557310.0
0.0 Special:Search en 1.0 108047570.0
0.0 Main_Page en 1.0 8533729872.0
0.0 Main_Page en 1.0 8533729872.0
0.0 Main_Page en 1.0 8533729872.0
0.0 The_Shining_(film) en 1.0 7155702.0
0.0 Chichijima_incident en 1.0 156777745.0
0.0 Main_Page en 1.0 8533729872.0
0.0 Peter_Mayhew en 1.0 2001641.0
0.0 Main_Page en 1.0 8533729872.0
0.0 Special:BlankPage en 1.0 942340592.0
0.0 Russell_Westbrook en 1.0 5148363.0
0.0 Main_Page en 1.0 8533729872.0
0.0 Six_Sigma en 1.0 5289133.0
0.0 Gmail en 1.0 22332773.0
0.0 Chichijima_incident en 1.0 156777745.0
0.0 Main_Page en 1.0 8533729872.0
0.0 Main_Page en 1.0 8533729872.0
0.0 Dickensian_(TV_series) en 1.0 2003300.0
0.0 Special:BlankPage en 1.0 942340592.0
0.0 Special:UserLogin en 1.0 1047123130.0
0.0 Main_Page en 1.0 8533729872.0
0.0 Main_Page en 1.0 8533729872.0
0.0 Main_Page en 1.0 8533729872.0
0.0 Katyar_Kaljat_Ghusali_(film) en 1.0 2355492.0
0.0 Main_Page en 1.0 8533729872.0
0.0 Ddd en 1.0 56799834.0
0.0 Main_Page en 1.0 8533729872.0
0.0 Main_Page en 1.0 8533729872.0
0.0 Special:BlankPage en 1.0 942340592.0
0.0 Suicide_Squad_(film) en 1.0 6708678.0
0.0 Java_(programming_language) en 1.0 9701848.0
0.0 The_Thief_of_Bagdad_(1924_film) en 1.0 2466866.0
0.0 Main_Page en 1.0 8533729872.0
0.0 Main_Page en 1.0 8533729872.0
0.0 Main_Page en 1.0 8533729872.0
0.0 Chichijima_incident en 1.0 156777745.0
0.0 Special:BlankPage en 1.0 942340592.0
0.0 Special:Search en 1.0 108047570.0
0.0 Rick_and_Morty en 1.0 5116546.0
0.0 Main_Page en 1.0 8533729872.0
0.0 Avril_Lavigne en 1.0 21828230.0
0.0 What%27s_Eating_Gilbert_Grape en 1.0 1779364.0
0.0 File:Mike_Rowe.jpg en 1.0 3140480.0
0.0 Main_Page en 1.0 8533729872.0
0.0 Main_Page en 1.0 8533729872.0
0.0 Main_Page en 1.0 8533729872.0
0.0 File:Herman_Melville.jpg en 1.0 5173080.0
0.0 Main_Page en 1.0 8533729872.0
0.0 Toyota en 1.0 13557411.0
0.0 Virtual_reality en 1.0 22465547.0
0.0 Main_Page en 1.0 8533729872.0
0.0 Main_Page en 1.0 8533729872.0
0.0 Main_Page en 1.0 8533729872.0
0.0 Special:Search en 1.0 108047570.0
0.0 Main_Page en 1.0 8533729872.0
0.0 Main_Page en 1.0 8533729872.0
0.0 Main_Page en 1.0 8533729872.0
0.0 Cephalopod en 1.0 103351379.0
0.0 Main_Page en 1.0 8533729872.0
0.0 Main_Page en 1.0 8533729872.0
0.0 Web_scraping en 1.0 28358326.0
0.0 Special:BlankPage en 1.0 942340592.0
0.0 Special:Search en 1.0 108047570.0
0.0 Nimr_al-Nimr en 1.0 31679231.0
0.0 Main_Page en 1.0 8533729872.0
0.0 Special:BlankPage en 1.0 942340592.0
0.0 Linkin_Park en 1.0 8165413.0
0.0 IEEE_802.11 en 1.0 6549045.0
0.0 Uma_Thurman en 1.0 4236195.0
0.0 Main_Page en 1.0 8533729872.0
0.0 Main_Page en 1.0 8533729872.0
0.0 2016_in_film en 1.0 37397840.0
0.0 Special:BlankPage en 1.0 942340592.0
0.0 Main_Page en 1.0 8533729872.0
0.0 Special:Watchlist en 1.0 76035929.0
0.0 Main_Page en 1.0 8533729872.0
0.0 Jimmy_Fallon en 1.0 9666675.0
0.0 Running_Man_(TV_series) en 1.0 12841036.0
0.0 Display_resolution en 1.0 3946821.0
0.0 Special:UserLogin en 1.0 1047123130.0
0.0 New_Year%27s_Eve_sexual_assaults_in_Germany en 1.0 29613078.0
0.0 Main_Page en 1.0 8533729872.0
0.0 Main_Page en 1.0 8533729872.0
0.0 Jerry_Heller en 1.0 2009888.0
0.0 Main_Page en 1.0 8533729872.0
0.0 Main_Page en 1.0 8533729872.0
0.0 Special:UserLogin en 1.0 1047123130.0
0.0 Main_Page en 1.0 8533729872.0
0.0 Special:UserLogin en 1.0 1047123130.0
0.0 Main_Page en 1.0 8533729872.0
0.0 Special:BlankPage en 1.0 942340592.0
0.0 Indian_elephant en 1.0 16392746.0
0.0 Main_Page en 1.0 8533729872.0
0.0 Main_Page en 1.0 8533729872.0
0.0 Main_Page en 1.0 8533729872.0
0.0 Main_Page en 1.0 8533729872.0
0.0 Main_Page en 1.0 8533729872.0
0.0 Main_Page en 1.0 8533729872.0
0.0 Main_Page en 1.0 8533729872.0
0.0 Main_Page en 1.0 8533729872.0
0.0 List_of_most_viewed_YouTube_videos en 1.0 9109804.0
0.0 Main_Page en 1.0 8533729872.0
0.0 Main_Page en 1.0 8533729872.0
0.0 Main_Page en 1.0 8533729872.0
0.0 Leonardo_DiCaprio en 1.0 33724264.0
0.0 Bajirao_I en 1.0 18185555.0
0.0 Chichijima_incident en 1.0 156777745.0
0.0 Special:UserLogin en 1.0 1047123130.0
0.0 Main_Page en 1.0 8533729872.0
0.0 Chichijima_incident en 1.0 156777745.0
0.0 Main_Page en 1.0 8533729872.0
0.0 Academy_Awards en 1.0 10169067.0
0.0 Exeter_City_F.C. en 1.0 6706392.0
0.0 Special:UserLogin en 1.0 1047123130.0
0.0 Main_Page en 1.0 8533729872.0
0.0 Main_Page en 1.0 8533729872.0
0.0 Canada en 1.0 59044537.0
0.0 Main_Page en 1.0 8533729872.0
0.0 File:Evander_Holyfield_LA_2011.jpg en 1.0 175595651.0
0.0 Main_Page en 1.0 8533729872.0
0.0 Main_Page en 1.0 8533729872.0
0.0 Netflix en 1.0 169502962.0
0.0 Main_Page en 1.0 8533729872.0
0.0 Main_Page en 1.0 8533729872.0
0.0 Main_Page en 1.0 8533729872.0
0.0 Main_Page en 1.0 8533729872.0
0.0 Star_Wars:_The_Force_Awakens en 1.0 360319666.0
0.0 Homeland_(season_5) en 1.0 3239788.0
0.0 Main_Page en 1.0 8533729872.0
0.0 Special:UserLogin en 1.0 1047123130.0
0.0 Web_scraping en 1.0 28358326.0
0.0 Hugh_Glass en 1.0 13929229.0
0.0 Hillary_Clinton en 1.0 37449200.0
0.0 Main_Page en 1.0 8533729872.0
0.0 Main_Page en 1.0 8533729872.0
0.0 List_of_Bollywood_films_of_2016 en 1.0 28421096.0
0.0 Special:BlankPage en 1.0 942340592.0
0.0 Main_Page en 1.0 8533729872.0
0.0 Main_Page en 1.0 8533729872.0
0.0 Main_Page en 1.0 8533729872.0
0.0 Main_Page en 1.0 8533729872.0
0.0 2016_North_Korean_nuclear_test en 1.0 27136680.0
0.0 Special:BlankPage en 1.0 942340592.0
0.0 Special:BlankPage en 1.0 942340592.0
0.0 Active_Raid en 1.0 1971108.0
0.0 Main_Page en 1.0 8533729872.0
0.0 Main_Page en 1.0 8533729872.0
0.0 Robert_Downey_Jr. en 1.0 7388050.0
0.0 United_Nations en 1.0 19916674.0
0.0 Main_Page en 1.0 8533729872.0
0.0 List_of_highest-grossing_Bollywood_films en 1.0 12070276.0
0.0 David_Bowie en 1.0 103675600.0
0.0 .rss en 1.0 49554765.0
0.0 Main_Page en 1.0 8533729872.0
0.0 Main_Page en 1.0 8533729872.0
0.0 Special:UserLogin en 1.0 1047123130.0
0.0 Main_Page en 1.0 8533729872.0
0.0 Lionel_Messi en 1.0 95764036.0
0.0 Main_Page en 1.0 8533729872.0
0.0 Special:BlankPage en 1.0 942340592.0
0.0 Main_Page en 1.0 8533729872.0
0.0 Bonnie_Franklin en 1.0 3547344.0
0.0 Main_Page en 1.0 8533729872.0
0.0 Main_Page en 1.0 8533729872.0
0.0 Main_Page en 1.0 8533729872.0
0.0 Main_Page en 1.0 8533729872.0
0.0 Main_Page en 1.0 8533729872.0
0.0 Main_Page en 1.0 8533729872.0
0.0 List_of_original_programs_distributed_by_Netflix en 1.0 9720122.0
0.0 Pornhub en 1.0 4674913.0
0.0 Main_Page en 1.0 8533729872.0
0.0 Main_Page en 1.0 8533729872.0
0.0 Main_Page en 1.0 8533729872.0
0.0 Main_Page en 1.0 8533729872.0
0.0 Revenant en 1.0 2229369.0
0.0 The_Blacklist_(TV_series) en 1.0 15236835.0
0.0 Main_Page en 1.0 8533729872.0
0.0 Main_Page en 1.0 8533729872.0
0.0 Main_Page en 1.0 8533729872.0
0.0 Elephant en 1.0 17527213.0
0.0 Special:UserLogin en 1.0 1047123130.0
0.0 Main_Page en 1.0 8533729872.0
0.0 Pierre-Emerick_Aubameyang en 1.0 17067974.0
0.0 Main_Page en 1.0 8533729872.0
0.0 Special:BlankPage en 1.0 942340592.0
0.0 Downton_Abbey en 1.0 16403133.0
0.0 Main_Page en 1.0 8533729872.0
0.0 Special:Search en 1.0 108047570.0
0.0 Main_Page en 1.0 8533729872.0
0.0 Chichijima_incident en 1.0 156777745.0
0.0 Main_Page en 1.0 8533729872.0
0.0 Special:UserLogin en 1.0 1047123130.0
0.0 George_W._Bush en 1.0 78255706.0
0.0 Bikini en 1.0 177244701.0
0.0 Special:UserLogin en 1.0 1047123130.0
0.0 Tila_Tequila en 1.0 7924183.0
0.0 Main_Page en 1.0 8533729872.0
0.0 Special:BlankPage en 1.0 942340592.0
0.0 Main_Page en 1.0 8533729872.0
0.0 Statue_of_Liberty en 1.0 12816308.0
0.0 Main_Page en 1.0 8533729872.0
0.0 Main_Page en 1.0 8533729872.0
0.0 Main_Page en 1.0 8533729872.0
0.0 Vodafone en 1.0 125393612.0
0.0 Blake_Lively en 1.0 4325804.0
0.0 Main_Page en 1.0 8533729872.0
0.0 Nanites en 1.0 22739120.0
0.0 NATO_phonetic_alphabet en 1.0 5423060.0
0.0 Main_Page en 1.0 8533729872.0
0.0 Main_Page en 1.0 8533729872.0
0.0 Padm%C3%A9_Amidala en 1.0 5811893.0
0.0 File:Michel_Platini_2010.jpg en 1.0 9570496.0
0.0 Main_Page en 1.0 8533729872.0
0.0 Special:Search en 1.0 108047570.0
0.0 Main_Page en 1.0 8533729872.0
0.0 Main_Page en 1.0 8533729872.0
0.0 Main_Page en 1.0 8533729872.0
0.0 Charles_Manson en 1.0 8880614.0
0.0 Main_Page en 1.0 8533729872.0
0.0 Tom_Hiddleston en 1.0 4247434.0
0.0 Main_Page en 1.0 8533729872.0
0.0 Barack_obama en 1.0 255717473.0
0.0 Main_Page en 1.0 8533729872.0
0.0 File:Evander_Holyfield_LA_2011.jpg en 1.0 175595651.0
0.0 Main_Page en 1.0 8533729872.0
0.0 Building_information_modeling en 1.0 15033164.0
0.0 Haruchika en 1.0 1883246.0
0.0 April_2015_Nepal_earthquake en 1.0 10926319.0
0.0 David_Bowie en 1.0 103675600.0
0.0 File:Ty_Lawson_Nuggets.jpg en 1.0 4031640.0
0.0 Main_Page en 1.0 8533729872.0
0.0 Main_Page en 1.0 8533729872.0
0.0 Main_Page en 1.0 8533729872.0
0.0 Main_Page en 1.0 8533729872.0
0.0 Main_Page en 1.0 8533729872.0
0.0 Special:UserLogin en 1.0 1047123130.0
0.0 George_H._W._Bush_vomiting_incident en 1.0 14363364.0
0.0 Main_Page en 1.0 8533729872.0
0.0 North_Korea en 1.0 118851507.0
0.0 The_Hateful_Eight en 1.0 37973477.0
0.0 Main_Page en 1.0 8533729872.0
0.0 File:MarcoRubioColorEnhanced112thCongress.jpg en 1.0 1349248.0
0.0 Eazy-E en 1.0 8411748.0
0.0 Main_Page en 1.0 8533729872.0
0.0 Yarloop,_Western_Australia en 1.0 7485652.0
0.0 Main_Page en 1.0 8533729872.0
0.0 Main_Page en 1.0 8533729872.0
0.0 Main_Page en 1.0 8533729872.0
0.0 Main_Page en 1.0 8533729872.0
0.0 Main_Page en 1.0 8533729872.0
0.0 Main_Page en 1.0 8533729872.0
0.0 Main_Page en 1.0 8533729872.0
0.0 Web_scraping en 1.0 28358326.0
0.0 Aaron_Rodgers en 1.0 16794420.0
0.0 Main_Page en 1.0 8533729872.0
0.0 Main_Page en 1.0 8533729872.0
0.0 Main_Page en 1.0 8533729872.0
0.0 Special:BlankPage en 1.0 942340592.0
0.0 Special:BlankPage en 1.0 942340592.0
0.0 File:Amber_Hagerman.jpg en 1.0 979884.0
0.0 Web_scraping en 1.0 28358326.0
0.0 Main_Page en 1.0 8533729872.0
0.0 Minnesota_Vikings_boat_party_scandal en 1.0 1507000.0
0.0 .rss en 1.0 49554765.0
0.0 Quantico_(TV_series) en 1.0 20830380.0
0.0 Al-Qaeda en 1.0 19151528.0
0.0 Main_Page en 1.0 8533729872.0
0.0 Main_Page en 1.0 8533729872.0
0.0 Special:UserLogin en 1.0 1047123130.0
0.0 Special:UserLogin en 1.0 1047123130.0
0.0 Ken_Griffey_Jr. en 1.0 22143154.0
0.0 Special:UserLogin en 1.0 1047123130.0
0.0 Seva_in_Tirumala en 1.0 4849951.0
0.0 Ddd en 1.0 56799834.0
0.0 Special:UserLogin en 1.0 1047123130.0
0.0 Main_Page en 1.0 8533729872.0
0.0 Special:UserLogin en 1.0 1047123130.0
0.0 Main_Page en 1.0 8533729872.0
0.0 Main_Page en 1.0 8533729872.0
0.0 Main_Page en 1.0 8533729872.0
0.0 Eternity_II_puzzle en 1.0 41705811.0
0.0 Special:BlankPage en 1.0 942340592.0
0.0 Main_Page en 1.0 8533729872.0
0.0 Special:BlankPage en 1.0 942340592.0
0.0 File:Pierre_Emerick_Aubameyang_2014.jpg en 1.0 3619476.0
0.0 Main_Page en 1.0 8533729872.0
0.0 Lenovo en 1.0 14461316.0
0.0 PewDiePie en 1.0 6692456.0
0.0 Main_Page en 1.0 8533729872.0
0.0 Archer_(TV_series) en 1.0 4789382.0
0.0 Main_Page en 1.0 8533729872.0
0.0 Deaths_in_2016 en 1.0 53894002.0
0.0 2016_BDO_World_Darts_Championship en 1.0 4740999.0
0.0 File:Donald_August_19_(cropped).jpg en 1.0 16354475.0
0.0 Main_Page en 1.0 8533729872.0
0.0 Main_Page en 1.0 8533729872.0
0.0 Main_Page en 1.0 8533729872.0
0.0 Main_Page en 1.0 8533729872.0
0.0 Main_Page en 1.0 8533729872.0
0.0 Main_Page en 1.0 8533729872.0
0.0 Star_Wars_(film) en 1.0 43034795.0
0.0 Main_Page en 1.0 8533729872.0
0.0 Guam en 1.0 9595676.0
0.0 Special:BlankPage en 1.0 942340592.0
0.0 Main_Page en 1.0 8533729872.0
0.0 The_Revenant_(2015_film) en 1.0 59359352.0
0.0 Main_Page en 1.0 8533729872.0
0.0 Sunny_Leone en 1.0 19569968.0
0.0 Main_Page en 1.0 8533729872.0
0.0 Cities_and_towns_during_the_Syrian_Civil_War en 1.0 84600027.0
0.0 David_Beckham en 1.0 12094496.0
0.0 Category:CS1_errors:_external_links en 1.0 2081675.0
0.0 Main_Page en 1.0 8533729872.0
0.0 Main_Page en 1.0 8533729872.0
0.0 John_Boyega en 1.0 17504336.0
0.0 Main_Page en 1.0 8533729872.0
0.0 Main_Page en 1.0 8533729872.0
0.0 Sicario_(2015_film) en 1.0 12373936.0
0.0 Deaths_in_2016 en 1.0 53894002.0
0.0 Main_Page en 1.0 8533729872.0
0.0 Main_Page en 1.0 8533729872.0
0.0 Main_Page en 1.0 8533729872.0
0.0 Main_Page en 1.0 8533729872.0
0.0 Area_51 en 1.0 7648665.0
0.0 Special:BlankPage en 1.0 942340592.0
0.0 Web_scraping en 1.0 28358326.0
0.0 Main_Page en 1.0 8533729872.0
0.0 The_Hateful_Eight en 1.0 37973477.0
0.0 File:Evander_Holyfield_LA_2011.jpg en 1.0 175595651.0
0.0 Special:Watchlist en 1.0 76035929.0
0.0 Bella_Thorne en 1.0 4195409.0
0.0 Demat_account en 1.0 174061131.0
0.0 Football en 1.0 7220898.0
0.0 Chichijima_incident en 1.0 156777745.0
0.0 Fall_Out_Boy en 1.0 7833776.0
0.0 Special:Search en 1.0 108047570.0
0.0 Main_Page en 1.0 8533729872.0
0.0 Main_Page en 1.0 8533729872.0
0.0 Main_Page en 1.0 8533729872.0
0.0 Main_Page en 1.0 8533729872.0
0.0 wiki//commons.wikimedia.org/wiki/special:search/wiki/w/index.php en 1.0 3635156.0
0.0 Main_Page en 1.0 8533729872.0
0.0 Bella_Hadid en 1.0 1321256.0
0.0 Special:Export/Coenzyme_Q10 en 1.0 19872060.0
0.0 Ice_Cube en 1.0 16099362.0
0.0 Main_Page en 1.0 8533729872.0
0.0 Main_Page en 1.0 8533729872.0
0.0 Xeroderma_pigmentosum en 1.0 10414222.0
0.0 Main_Page en 1.0 8533729872.0
0.0 Main_Page en 1.0 8533729872.0
0.0 Main_Page en 1.0 8533729872.0
0.0 UEFA_Euro_2016 en 1.0 12431988.0
0.0 Main_Page en 1.0 8533729872.0
0.0 Special:UserLogin en 1.0 1047123130.0
0.0 Main_Page en 1.0 8533729872.0
0.0 Main_Page en 1.0 8533729872.0
0.0 Main_Page en 1.0 8533729872.0
0.0 The_Shannara_Chronicles en 1.0 24672996.0
0.0 Eternity_II_puzzle en 1.0 41705811.0
0.0 Main_Page en 1.0 8533729872.0
0.0 Main_Page en 1.0 8533729872.0
0.0 List_of_Agents_of_S.H.I.E.L.D._episodes en 1.0 4662884.0
0.0 Main_Page en 1.0 8533729872.0
0.0 Special:BlankPage en 1.0 942340592.0
0.0 Special:BlankPage en 1.0 942340592.0
0.0 Main_Page en 1.0 8533729872.0
0.0 Main_Page en 1.0 8533729872.0
0.0 Main_Page en 1.0 8533729872.0
0.0 Creed_(film) en 1.0 12465330.0
0.0 Charlize_Theron en 1.0 6534458.0
0.0 Special:UserLogin en 1.0 1047123130.0
0.0 Main_Page en 1.0 8533729872.0
0.0 Marie_Antoinette en 1.0 12606721.0
0.0 Main_Page en 1.0 8533729872.0
0.0 Vietnam en 1.0 35946855.0
0.0 Main_Page en 1.0 8533729872.0
0.0 Main_Page en 1.0 8533729872.0
0.0 Special:BlankPage en 1.0 942340592.0
0.0 Main_Page en 1.0 8533729872.0
0.0 Main_Page en 1.0 8533729872.0
0.0 Luke_Skywalker en 1.0 7743106.0
0.0 Main_Page en 1.0 8533729872.0
0.0 Fuller_House_(TV_series) en 1.0 7993261.0
0.0 Hungary en 1.0 17667607.0
0.0 Special:UserLogin en 1.0 1047123130.0
0.0 Light_rail en 1.0 5456384.0
0.0 Main_Page en 1.0 8533729872.0
0.0 2016_Pathankot_attack en 1.0 22086189.0
0.0 Special:BlankPage en 1.0 942340592.0
0.0 Main_Page en 1.0 8533729872.0
0.0 Main_Page en 1.0 8533729872.0
0.0 Main_Page en 1.0 8533729872.0
0.0 Special:UserLogin en 1.0 1047123130.0
0.0 Main_Page en 1.0 8533729872.0
0.0 Special:UserLogin en 1.0 1047123130.0
0.0 List_of_HTTP_header_fields en 1.0 3109374.0
0.0 List_of_LTE_networks en 1.0 24795552.0
0.0 Main_Page en 1.0 8533729872.0
0.0 Special:UserLogin en 1.0 1047123130.0
0.0 Special:HideBanners en 1.0 0.0
0.0 Main_Page en 1.0 8533729872.0
0.0 Special:BlankPage en 1.0 942340592.0
0.0 Special:BlankPage en 1.0 942340592.0
0.0 Main_Page en 1.0 8533729872.0
0.0 Main_Page en 1.0 8533729872.0
0.0 Amy_Winehouse en 1.0 13690398.0
0.0 File:Evander_Holyfield_LA_2011.jpg en 1.0 175595651.0
0.0 Daisy_Ridley en 1.0 12796791.0
0.0 Chichijima_incident en 1.0 156777745.0
0.0 Main_Page en 1.0 8533729872.0
0.0 Java_(programming_language) en 1.0 9701848.0
0.0 Main_Page en 1.0 8533729872.0
0.0 Main_Page en 1.0 8533729872.0
0.0 Main_Page en 1.0 8533729872.0
0.0 File:Evander_Holyfield_LA_2011.jpg en 1.0 175595651.0
0.0 Person_of_Interest_(TV_series) en 1.0 9931871.0
0.0 List_of_Lip_Sync_Battle_episodes en 1.0 9514977.0
0.0 Main_Page en 1.0 8533729872.0
0.0 File:Sandra_Bland_re-crop.jpg en 1.0 1498798.0
0.0 Special:Search en 1.0 108047570.0
0.0 Special:BlankPage en 1.0 942340592.0
0.0 The_Walking_Dead_(TV_series) en 1.0 27399607.0
0.0 Main_Page en 1.0 8533729872.0
0.0 Lupita_Nyong%27o en 1.0 5965736.0
0.0 Bullet_Club en 1.0 11765800.0
0.0 File:Prince_Andrew_August_2014_(cropped).jpg en 1.0 2242080.0
0.0 Main_Page en 1.0 8533729872.0
0.0 Java_(programming_language) en 1.0 9701848.0
0.0 Category:Articles_with_hAudio_microformats en 1.0 2988407.0
0.0 Main_Page en 1.0 8533729872.0
0.0 Special:UserLogin en 1.0 1047123130.0
0.0 Tamil_language en 1.0 7500435.0
0.0 Web_scraping en 1.0 28358326.0
0.0 Special:BlankPage en 1.0 942340592.0
0.0 Main_Page en 1.0 8533729872.0
0.0 Sherlock_(TV_series) en 1.0 46371239.0
0.0 Main_Page en 1.0 8533729872.0
0.0 Dark_matter en 1.0 13413505.0
0.0 Main_Page en 1.0 8533729872.0
0.0 Special:BlankPage en 1.0 942340592.0
0.0 Main_Page en 1.0 8533729872.0
0.0 Main_Page en 1.0 8533729872.0
0.0 Main_Page en 1.0 8533729872.0
0.0 Main_Page en 1.0 8533729872.0
0.0 Chichijima_incident en 1.0 156777745.0
0.0 Gordon_Gollob en 1.0 55856045.0
0.0 Special:Search en 1.0 108047570.0
0.0 Main_Page en 1.0 8533729872.0
0.0 Making_a_Murderer en 1.0 33144160.0
0.0 Main_Page en 1.0 8533729872.0
0.0 Bee_Gees en 1.0 10998568.0
0.0 Renminbi en 1.0 6604757.0
0.0 Main_Page en 1.0 8533729872.0
0.0 Special:UserLogin en 1.0 1047123130.0
0.0 Main_Page en 1.0 8533729872.0
0.0 Blade_Runner en 1.0 74936268.0
0.0 Special:BlankPage en 1.0 942340592.0
0.0 Main_Page en 1.0 8533729872.0
0.0 Steve_Eisman en 1.0 1233676.0
0.0 Main_Page en 1.0 8533729872.0
0.0 Special:BlankPage en 1.0 942340592.0
0.0 File:Evander_Holyfield_LA_2011.jpg en 1.0 175595651.0
0.0 Islam en 1.0 30839251.0
0.0 Main_Page en 1.0 8533729872.0
0.0 Main_Page en 1.0 8533729872.0
0.0 Special:BlankPage en 1.0 942340592.0
0.0 Main_Page en 1.0 8533729872.0
0.0 Main_Page en 1.0 8533729872.0
0.0 Database en 1.0 9342893.0
0.0 Main_Page en 1.0 8533729872.0
0.0 Hugh_Glass en 1.0 13929229.0
0.0 Marco_Rubio en 1.0 8733600.0
0.0 Main_Page en 1.0 8533729872.0
0.0 Main_Page en 1.0 8533729872.0
0.0 Web_scraping en 1.0 28358326.0
0.0 Main_Page en 1.0 8533729872.0
0.0 Main_Page en 1.0 8533729872.0
0.0 Main_Page en 1.0 8533729872.0
0.0 List_of_stock_exchange_opening_times en 1.0 2920077.0
0.0 Main_Page en 1.0 8533729872.0
0.0 The_Dark_Knight_Rises en 1.0 10604161.0
0.0 Main_Page en 1.0 8533729872.0
0.0 Main_Page en 1.0 8533729872.0
0.0 Main_Page en 1.0 8533729872.0
0.0 Main_Page en 1.0 8533729872.0
0.0 Main_Page en 1.0 8533729872.0
0.0 Main_Page en 1.0 8533729872.0
0.0 Deaths_in_2016 en 1.0 53894002.0
0.0 Main_Page en 1.0 8533729872.0
0.0 Special:UserLogin en 1.0 1047123130.0
0.0 Main_Page en 1.0 8533729872.0
0.0 Main_Page en 1.0 8533729872.0
0.0 Main_Page en 1.0 8533729872.0
0.0 Special:UserLogin en 1.0 1047123130.0
0.0 Main_Page en 1.0 8533729872.0
0.0 Neerja_Bhanot en 1.0 1616062.0
0.0 Star_Wars en 1.0 136598327.0
0.0 Main_Page en 1.0 8533729872.0
0.0 Main_Page en 1.0 8533729872.0
0.0 Special:UserLogin en 1.0 1047123130.0
0.0 Tom_Hardy en 1.0 10777905.0
0.0 Main_Page en 1.0 8533729872.0
0.0 The_Shannara_Chronicles en 1.0 24672996.0
0.0 Special:UserLogin en 1.0 1047123130.0
0.0 The_Simpsons_(season_1) en 1.0 4604863.0
0.0 Irudhi_Suttru en 1.0 2189883.0
0.0 Main_Page en 1.0 8533729872.0
0.0 Main_Page en 1.0 8533729872.0
0.0 Main_Page en 1.0 8533729872.0
0.0 Deep_Note en 1.0 7286054.0
0.0 Main_Page en 1.0 8533729872.0
0.0 Main_Page en 1.0 8533729872.0
0.0 Main_Page en 1.0 8533729872.0
0.0 Human_penis_size en 1.0 4484724.0
0.0 Main_Page en 1.0 8533729872.0
0.0 Special:UserLogin en 1.0 1047123130.0
0.0 List_of_original_programs_distributed_by_Netflix en 1.0 9720122.0
0.0 Main_Page en 1.0 8533729872.0
0.0 American_Crime_(TV_series) en 1.0 5699564.0
0.0 Sanam_Teri_Kasam_(2016_film) en 1.0 3707538.0
0.0 Special:UserLogin en 1.0 1047123130.0
0.0 Main_Page en 1.0 8533729872.0
0.0 Chichijima_incident en 1.0 156777745.0
0.0 Main_Page en 1.0 8533729872.0
0.0 The_Notorious_B.I.G. en 1.0 5812579.0
0.0 Main_Page en 1.0 8533729872.0
0.0 Will_Ferrell en 1.0 8823279.0
0.0 Main_Page en 1.0 8533729872.0
0.0 Special:UserLogin en 1.0 1047123130.0
0.0 Special:UserLogin en 1.0 1047123130.0
0.0 Main_Page en 1.0 8533729872.0
0.0 Special:UserLogin en 1.0 1047123130.0
0.0 File:Evander_Holyfield_LA_2011.jpg en 1.0 175595651.0
0.0 Main_Page en 1.0 8533729872.0
0.0 Demat_account en 1.0 174061131.0
0.0 Main_Page en 1.0 8533729872.0
0.0 Chichijima_incident en 1.0 156777745.0
0.0 Corrupted_Blood_incident en 1.0 20892406.0
0.0 Main_Page en 1.0 8533729872.0
0.0 The_Big_Short_(film) en 1.0 17303600.0
0.0 Special:UserLogin en 1.0 1047123130.0
0.0 Cephalopod en 1.0 103351379.0
0.0 Main_Page en 1.0 8533729872.0
0.0 Main_Page en 1.0 8533729872.0
0.0 Main_Page en 1.0 8533729872.0
0.0 Romania en 1.0 24947889.0
0.0 Main_Page en 1.0 8533729872.0
0.0 Special:BlankPage en 1.0 942340592.0
0.0 Main_Page en 1.0 8533729872.0
0.0 Main_Page en 1.0 8533729872.0
0.0 Special:BlankPage en 1.0 942340592.0
0.0 Main_Page en 1.0 8533729872.0
0.0 Main_Page en 1.0 8533729872.0
0.0 Special:BlankPage en 1.0 942340592.0
0.0 Cigna en 1.0 2581176.0
0.0 Steven_Avery en 1.0 25258095.0
0.0 Special:BlankPage en 1.0 942340592.0
0.0 Isis en 1.0 3130694.0
0.0 Main_Page en 1.0 8533729872.0
0.0 Web_scraping en 1.0 28358326.0
0.0 Main_Page en 1.0 8533729872.0
0.0 File:Evander_Holyfield_LA_2011.jpg en 1.0 175595651.0
0.0 Special:UserLogin en 1.0 1047123130.0
0.0 Henry_Kissinger en 1.0 9715807.0
0.0 Main_Page en 1.0 8533729872.0
0.0 Main_Page en 1.0 8533729872.0
0.0 Main_Page en 1.0 8533729872.0
0.0 Russia en 1.0 57976919.0
0.0 File:Evander_Holyfield_LA_2011.jpg en 1.0 175595651.0
0.0 Special:UserLogin en 1.0 1047123130.0
0.0 Main_Page en 1.0 8533729872.0
0.0 Main_Page en 1.0 8533729872.0
0.0 Puerto_Rico en 1.0 21052096.0
0.0 Main_Page en 1.0 8533729872.0
0.0 Robin_Williams en 1.0 16348734.0
0.0 Main_Page en 1.0 8533729872.0
0.0 Special:Search en 1.0 108047570.0
0.0 Nepal en 1.0 15832632.0
0.0 Special:UserLogin en 1.0 1047123130.0
0.0 Kriti_Sanon en 1.0 3205666.0
0.0 Main_Page en 1.0 8533729872.0
0.0 Demat_account en 1.0 174061131.0
0.0 Special:BlankPage en 1.0 942340592.0
0.0 Rey_(Star_Wars) en 1.0 7293941.0
0.0 Main_Page en 1.0 8533729872.0
0.0 The_Danish_Girl_(film) en 1.0 11623257.0
0.0 Main_Page en 1.0 8533729872.0
0.0 Special:UserLogin en 1.0 1047123130.0
0.0 Main_Page en 1.0 8533729872.0
0.0 Main_Page en 1.0 8533729872.0
0.0 Main_Page en 1.0 8533729872.0
0.0 Kim_Jong-il en 1.0 11724732.0
0.0 Main_Page en 1.0 8533729872.0
0.0 Meghan_Trainor en 1.0 6129104.0
0.0 The_Ridiculous_6 en 1.0 4747732.0
0.0 Special:UserLogin en 1.0 1047123130.0
0.0 The_Next_Day en 1.0 4561695.0
0.0 Much_Ado_About_Nothing en 1.0 40783320.0
0.0 UFC_196 en 1.0 5191146.0
0.0 Main_Page en 1.0 8533729872.0
0.0 Special:SpecialPages en 1.0 1740907.0
0.0 Main_Page en 1.0 8533729872.0
0.0 Main_Page en 1.0 8533729872.0
0.0 Main_Page en 1.0 8533729872.0
0.0 Main_Page en 1.0 8533729872.0
0.0 Main_Page en 1.0 8533729872.0
0.0 Transmission_Control_Protocol en 1.0 4855017.0
0.0 Main_Page en 1.0 8533729872.0
0.0 File:DWSPortrait.jpg en 1.0 1711744.0
0.0 Special:UserLogin en 1.0 1047123130.0
0.0 2012_Benghazi_attack en 1.0 18671971.0
0.0 Standard_deviation en 1.0 11095568.0
0.0 Deaths_in_2016 en 1.0 53894002.0
0.0 HTTPS en 1.0 116491638.0
0.0 Elizabeth_Olsen en 1.0 3277670.0
0.0 Nannaku_Prematho en 1.0 2728623.0
0.0 The_Death_of_Leonardo_da_Vinci en 1.0 1267420.0
0.0 Main_Page en 1.0 8533729872.0
0.0 Main_Page en 1.0 8533729872.0
0.0 Main_Page en 1.0 8533729872.0
0.0 Main_Page en 1.0 8533729872.0
0.0 Main_Page en 1.0 8533729872.0
0.0 File:Evander_Holyfield_LA_2011.jpg en 1.0 175595651.0
0.0 Main_Page en 1.0 8533729872.0
0.0 Main_Page en 1.0 8533729872.0
0.0 Daisy_Ridley en 1.0 12796791.0
0.0 Main_Page en 1.0 8533729872.0
0.0 Main_Page en 1.0 8533729872.0
0.0 Main_Page en 1.0 8533729872.0
0.0 So_Ji-sub en 1.0 4638401.0
0.0 Main_Page en 1.0 8533729872.0
0.0 Main_Page en 1.0 8533729872.0
0.0 Special:UserLogin en 1.0 1047123130.0
0.0 Index.php en 1.0 5377671.0
0.0 Main_Page en 1.0 8533729872.0
0.0 Rafael_dos_Anjos en 1.0 16916167.0
0.0 Special:BlankPage en 1.0 942340592.0
0.0 Ddd en 1.0 56799834.0
0.0 Main_Page en 1.0 8533729872.0
0.0 Special:UserLogin en 1.0 1047123130.0
0.0 Main_Page en 1.0 8533729872.0
0.0 Main_Page en 1.0 8533729872.0
0.0 Main_Page en 1.0 8533729872.0
0.0 Dilwale_(2015_film) en 1.0 24935892.0
0.0 Main_Page en 1.0 8533729872.0
0.0 Main_Page en 1.0 8533729872.0
0.0 Main_Page en 1.0 8533729872.0
0.0 Operating_system en 1.0 11181064.0
0.0 Category:Wikipedia_articles_incorporating_a_citation_from_the_1911_Encyclopaedia_Britannica_with_Wikisource_reference en 1.0 1513259.0
0.0 Special:BlankPage en 1.0 942340592.0
0.0 Main_Page en 1.0 8533729872.0
0.0 Mark_Hamill en 1.0 13818790.0
0.0 Jurassic_World en 1.0 18040885.0
0.0 Daisy_Ridley en 1.0 12796791.0
0.0 Main_Page en 1.0 8533729872.0
0.0 Main_Page en 1.0 8533729872.0
0.0 Main_Page en 1.0 8533729872.0
0.0 Mozart_in_the_Jungle en 1.0 1863239.0
0.0 Penis_enlargement en 1.0 2899038.0
0.0 Main_Page en 1.0 8533729872.0
0.0 Firehouse,_Hook_%26_Ladder_Company_8 en 1.0 6562070.0
0.0 Special:Search en 1.0 108047570.0
0.0 Main_Page en 1.0 8533729872.0
0.0 Main_Page en 1.0 8533729872.0
0.0 Special:UserLogin en 1.0 1047123130.0
0.0 Special:BlankPage en 1.0 942340592.0
0.0 Special:BlankPage en 1.0 942340592.0
0.0 Main_Page en 1.0 8533729872.0
0.0 Main_Page en 1.0 8533729872.0
0.0 Ddd en 1.0 56799834.0
0.0 Main_Page en 1.0 8533729872.0
0.0 Special:UserLogin en 1.0 1047123130.0
0.0 David_Stirling en 1.0 2361164.0
0.0 List_of_films_considered_the_best en 1.0 14318042.0
0.0 Special:BlankPage en 1.0 942340592.0
0.0 Main_Page en 1.0 8533729872.0
0.0 Main_Page en 1.0 8533729872.0
0.0 Main_Page en 1.0 8533729872.0
0.0 Saudi_Arabia en 1.0 64695489.0
0.0 Adolf_Hitler en 1.0 47211435.0
0.0 Special:BlankPage en 1.0 942340592.0
0.0 List_of_Teen_Wolf_episodes en 1.0 4974178.0
0.0 Main_Page en 1.0 8533729872.0
0.0 Julius_Caesar en 1.0 10153630.0
0.0 File:Karch_Kiraly.jpg en 1.0 3844496.0
0.0 Main_Page en 1.0 8533729872.0
0.0 List_of_Tamil_films_of_2015 en 1.0 6336093.0
0.0 Main_Page en 1.0 8533729872.0
0.0 Pterosaur en 1.0 32697340.0
0.0 Main_Page en 1.0 8533729872.0
0.0 Main_Page en 1.0 8533729872.0
0.0 Main_Page en 1.0 8533729872.0
0.0 Main_Page en 1.0 8533729872.0
0.0 File:Ted_Cruz,_official_portrait,_113th_Congress.jpg en 1.0 3744106.0
0.0 Main_Page en 1.0 8533729872.0
0.0 Ghayal_Once_Again en 1.0 1354398.0
0.0 Main_Page en 1.0 8533729872.0
0.0 Main_Page en 1.0 8533729872.0
0.0 List_of_Star_Wars_books en 1.0 5438667.0
0.0 Bolivia en 1.0 20259261.0
0.0 Main_Page en 1.0 8533729872.0
0.0 Main_Page en 1.0 8533729872.0
0.0 Channing_Tatum en 1.0 21674983.0
0.0 List_of_The_Vampire_Diaries_episodes en 1.0 8881290.0
0.0 Main_Page en 1.0 8533729872.0
0.0 Special:Search en 1.0 108047570.0
0.0 Main_Page en 1.0 8533729872.0
0.0 Kanye_West en 1.0 29561111.0
0.0 Web_scraping en 1.0 28358326.0
0.0 Special:UserLogin en 1.0 1047123130.0
0.0 Demat_account en 1.0 174061131.0
0.0 Manav_Kaul en 1.0 1940132.0
0.0 Special:UserLogin en 1.0 1047123130.0
0.0 Militia_occupation_of_the_Malheur_National_Wildlife_Refuge en 1.0 8756068.0
0.0 Main_Page en 1.0 8533729872.0
0.0 Main_Page en 1.0 8533729872.0
0.0 File:Evander_Holyfield_LA_2011.jpg en 1.0 175595651.0
0.0 File:Evander_Holyfield_LA_2011.jpg en 1.0 175595651.0
0.0 Main_Page en 1.0 8533729872.0
0.0 Main_Page en 1.0 8533729872.0
0.0 Demat_account en 1.0 174061131.0
0.0 Bombardier_CRJ200 en 1.0 8477013.0
0.0 Main_Page en 1.0 8533729872.0
0.0 The_Revenant_(novel) en 1.0 1608035.0
0.0 Main_Page en 1.0 8533729872.0
0.0 File:Evander_Holyfield_LA_2011.jpg en 1.0 175595651.0
0.0 Plato en 1.0 19926228.0
0.0 Special:BlankPage en 1.0 942340592.0
0.0 Main_Page en 1.0 8533729872.0
0.0 Special:RecentChanges en 1.0 21739539.0
0.0 Main_Page en 1.0 8533729872.0
0.0 List_of_Suits_episodes en 1.0 20409094.0
0.0 Main_Page en 1.0 8533729872.0
0.0 Special:BlankPage en 1.0 942340592.0
0.0 Main_Page en 1.0 8533729872.0
0.0 Main_Page en 1.0 8533729872.0
0.0 Lionel_Messi en 1.0 95764036.0
0.0 Main_Page en 1.0 8533729872.0
0.0 Main_Page en 1.0 8533729872.0
0.0 Main_Page en 1.0 8533729872.0
0.0 Main_Page en 1.0 8533729872.0
0.0 Main_Page en 1.0 8533729872.0
0.0 Special:BlankPage en 1.0 942340592.0
0.0 German_Moreno en 1.0 14611541.0
0.0 Special:UserLogin en 1.0 1047123130.0
0.0 Special:HideBanners en 1.0 0.0
0.0 Luke_Cage en 1.0 4574436.0
0.0 Ellie_Goulding en 1.0 6906734.0
0.0 Blackstar_(David_Bowie_album) en 1.0 16152081.0
0.0 Main_Page en 1.0 8533729872.0
0.0 Main_Page en 1.0 8533729872.0
0.0 Main_Page en 1.0 8533729872.0
0.0 Main_Page en 1.0 8533729872.0
0.0 High-Rise_(film) en 1.0 5003796.0
0.0 Main_Page en 1.0 8533729872.0
0.0 Main_Page en 1.0 8533729872.0
0.0 January_9 en 1.0 8073455.0
0.0 Main_Page en 1.0 8533729872.0
0.0 Oscar_Isaac en 1.0 9405208.0
0.0 Main_Page en 1.0 8533729872.0
0.0 Main_Page en 1.0 8533729872.0
0.0 Main_Page en 1.0 8533729872.0
0.0 George_H._W._Bush en 1.0 221410448.0
0.0 Quentin_Tarantino en 1.0 39212819.0
0.0 Main_Page en 1.0 8533729872.0
0.0 Main_Page en 1.0 8533729872.0
0.0 Main_Page en 1.0 8533729872.0
0.0 RSS en 1.0 5430823.0
0.0 File:Michel_Platini_2010.jpg en 1.0 9570496.0
0.0 Main_Page en 1.0 8533729872.0
0.0 Main_Page en 1.0 8533729872.0
0.0 Scrap en 1.0 7759155.0
0.0 Demat_account en 1.0 174061131.0
0.0 Special:BlankPage en 1.0 942340592.0
0.0 China en 1.0 110184485.0
0.0 Main_Page en 1.0 8533729872.0
0.0 Main_Page en 1.0 8533729872.0
0.0 File:Evander_Holyfield_LA_2011.jpg en 1.0 175595651.0
0.0 Rocky_V en 1.0 2348330.0
0.0 Main_Page en 1.0 8533729872.0
0.0 Main_Page en 1.0 8533729872.0
0.0 Fantastic_Beasts_and_Where_to_Find_Them_(film) en 1.0 2735353.0
0.0 Main_Page en 1.0 8533729872.0
0.0 Pentatonix en 1.0 5011778.0
0.0 Web_scraping en 1.0 28358326.0
0.0 Java_(programming_language) en 1.0 9701848.0
0.0 Argentina en 1.0 28365254.0
0.0 Sundar_Pichai en 1.0 6203218.0
0.0 Main_Page en 1.0 8533729872.0
0.0 Main_Page en 1.0 8533729872.0
0.0 Special:BlankPage en 1.0 942340592.0
0.0 Main_Page en 1.0 8533729872.0
0.0 Main_Page en 1.0 8533729872.0
0.0 Main_Page en 1.0 8533729872.0
0.0 File:Evander_Holyfield_LA_2011.jpg en 1.0 175595651.0
0.0 Punisher en 1.0 3863913.0
0.0 Special:UserLogin en 1.0 1047123130.0
0.0 Main_Page en 1.0 8533729872.0
0.0 Special:UserLogin en 1.0 1047123130.0
0.0 Special:UserLogin en 1.0 1047123130.0
0.0 Isaac_Newton en 1.0 14328532.0
0.0 Jos%C3%A9_Aldo en 1.0 3408060.0
0.0 Special:UserLogin en 1.0 1047123130.0
0.0 Special:UserLogin en 1.0 1047123130.0
0.0 Main_Page en 1.0 8533729872.0
0.0 Special:UserLogin en 1.0 1047123130.0
0.0 Main_Page en 1.0 8533729872.0
0.0 Main_Page en 1.0 8533729872.0
0.0 Game_of_Thrones en 1.0 78026053.0
0.0 Main_Page en 1.0 8533729872.0
0.0 Main_Page en 1.0 8533729872.0
0.0 Fun en 1.0 18277248.0
0.0 Chichijima_incident en 1.0 156777745.0
0.0 Main_Page en 1.0 8533729872.0
0.0 Main_Page en 1.0 8533729872.0
0.0 Main_Page en 1.0 8533729872.0
0.0 Main_Page en 1.0 8533729872.0
0.0 Main_Page en 1.0 8533729872.0
0.0 Main_Page en 1.0 8533729872.0
0.0 Special:BlankPage en 1.0 942340592.0
0.0 Demat_account en 1.0 174061131.0
0.0 Main_Page en 1.0 8533729872.0
0.0 Main_Page en 1.0 8533729872.0
0.0 Main_Page en 1.0 8533729872.0
0.0 Main_Page en 1.0 8533729872.0
0.0 Main_Page en 1.0 8533729872.0
0.0 Chichijima_incident en 1.0 156777745.0
0.0 Main_Page en 1.0 8533729872.0
0.0 Main_Page en 1.0 8533729872.0
0.0 Southeast_Asia en 1.0 7843592.0
0.0 Special:UserLogin en 1.0 1047123130.0
0.0 Special:UserLogin en 1.0 1047123130.0
0.0 Special:BlankPage en 1.0 942340592.0
0.0 Main_Page en 1.0 8533729872.0
0.0 Main_Page en 1.0 8533729872.0
0.0 Chichijima_incident en 1.0 156777745.0
0.0 Main_Page en 1.0 8533729872.0
0.0 Main_Page en 1.0 8533729872.0
0.0 Main_Page en 1.0 8533729872.0
0.0 Main_Page en 1.0 8533729872.0
0.0 Special:BlankPage en 1.0 942340592.0
0.0 Special:BlankPage en 1.0 942340592.0
0.0 Main_Page en 1.0 8533729872.0
0.0 Main_Page en 1.0 8533729872.0
0.0 Main_Page en 1.0 8533729872.0
0.0 Main_Page en 1.0 8533729872.0
0.0 Main_Page en 1.0 8533729872.0
0.0 Special:Search en 1.0 108047570.0
0.0 Sachin_Tendulkar en 1.0 25243060.0
0.0 File:Manchester_United_FC_crest.svg en 1.0 3096137.0
0.0 Main_Page en 1.0 8533729872.0
0.0 Pterosaur en 1.0 32697340.0
0.0 Syrian_Civil_War en 1.0 124670979.0
0.0 Meteoric_iron en 1.0 4842990.0
0.0 Lionel_Messi en 1.0 95764036.0
0.0 Chichijima_incident en 1.0 156777745.0
0.0 Main_Page en 1.0 8533729872.0
0.0 Rock-paper-scissors en 1.0 37601302.0
0.0 Main_Page en 1.0 8533729872.0
0.0 Main_Page en 1.0 8533729872.0
0.0 Main_Page en 1.0 8533729872.0
0.0 Special:HideBanners en 1.0 0.0
0.0 Main_Page en 1.0 8533729872.0
0.0 Web_scraping en 1.0 28358326.0
0.0 Main_Page en 1.0 8533729872.0
0.0 Main_Page en 1.0 8533729872.0
0.0 Special:UserLogin en 1.0 1047123130.0
0.0 Main_Page en 1.0 8533729872.0
0.0 Main_Page en 1.0 8533729872.0
0.0 The_Revenant_(2015_film) en 1.0 59359352.0
0.0 Central_Intelligence_Agency en 1.0 74026805.0
0.0 Main_Page en 1.0 8533729872.0
0.0 Main_Page en 1.0 8533729872.0
0.0 Main_Page en 1.0 8533729872.0
0.0 Main_Page en 1.0 8533729872.0
0.0 Special:BlankPage en 1.0 942340592.0
0.0 Zooey_Deschanel en 1.0 4590943.0
0.0 Special:BlankPage en 1.0 942340592.0
0.0 68th_British_Academy_Film_Awards en 1.0 1967334.0
0.0 Main_Page en 1.0 8533729872.0
0.0 Web_scraping en 1.0 28358326.0
0.0 Girls%27_Generation en 1.0 10671389.0
0.0 Main_Page en 1.0 8533729872.0
0.0 Donald_Glover en 1.0 3095719.0
0.0 Main_Page en 1.0 8533729872.0
0.0 Main_Page en 1.0 8533729872.0
0.0 List_of_sovereign_states_and_dependent_territories_by_population_density en 1.0 9530452.0
0.0 Chichijima_incident en 1.0 156777745.0
0.0 Main_Page en 1.0 8533729872.0
0.0 Anthropocene en 1.0 5737356.0
0.0 Mobile_phone en 1.0 7046931.0
0.0 Nimr_al-Nimr en 1.0 31679231.0
0.0 Main_Page en 1.0 8533729872.0
0.0 Main_Page en 1.0 8533729872.0
0.0 Girls_(TV_series) en 1.0 6694864.0
0.0 Special:UserLogin en 1.0 1047123130.0
0.0 Full_House en 1.0 6937528.0
0.0 Special:BlankPage en 1.0 942340592.0
0.0 Donald_Trump en 1.0 115639487.0
0.0 Saddam_Hussein en 1.0 10428292.0
0.0 Nirvana_(band) en 1.0 6720246.0
0.0 Main_Page en 1.0 8533729872.0
0.0 Main_Page en 1.0 8533729872.0
0.0 Hong_Kong en 1.0 42917547.0
0.0 Special:BlankPage en 1.0 942340592.0
0.0 Main_Page en 1.0 8533729872.0
0.0 Data_mining en 1.0 5732474.0
0.0 Main_Page en 1.0 8533729872.0
0.0 Amino_acid en 1.0 8483901.0
0.0 Main_Page en 1.0 8533729872.0
0.0 Main_Page en 1.0 8533729872.0
0.0 Much_Ado_About_Nothing en 1.0 40783320.0
0.0 Main_Page en 1.0 8533729872.0
0.0 Mary-Kate_and_Ashley_Olsen en 1.0 2594145.0
0.0 Chichijima_incident en 1.0 156777745.0
0.0 George_H._W._Bush en 1.0 221410448.0
0.0 Main_Page en 1.0 8533729872.0
0.0 File:Crilogo.jpg en 1.0 5759262.0
0.0 Special:UserLogin en 1.0 1047123130.0
0.0 Black_hole en 1.0 17175010.0
0.0 Special:Watchlist en 1.0 76035929.0
0.0 Main_Page en 1.0 8533729872.0
0.0 Main_Page en 1.0 8533729872.0
0.0 Nazi_Germany en 1.0 25386116.0
0.0 Rango_(2011_film) en 1.0 4845725.0
0.0 Main_Page en 1.0 8533729872.0
0.0 Special:UserLogin en 1.0 1047123130.0
0.0 File:Evander_Holyfield_LA_2011.jpg en 1.0 175595651.0
0.0 Main_Page en 1.0 8533729872.0
0.0 Main_Page en 1.0 8533729872.0
0.0 Main_Page en 1.0 8533729872.0
0.0 Main_Page en 1.0 8533729872.0
0.0 Main_Page en 1.0 8533729872.0
0.0 Main_Page en 1.0 8533729872.0
0.0 Shawn_Mendes en 1.0 4617246.0
0.0 Main_Page en 1.0 8533729872.0
0.0 Main_Page en 1.0 8533729872.0
0.0 Main_Page en 1.0 8533729872.0
0.0 Liam_Hemsworth en 1.0 2923375.0
0.0 Bruce_Kingsbury en 1.0 16659828.0
0.0 Zayn_Malik en 1.0 14768160.0
0.0 Special:BlankPage en 1.0 942340592.0
0.0 Special:UserLogin en 1.0 1047123130.0
0.0 List_of_Gotham_episodes en 1.0 11151699.0
0.0 Main_Page en 1.0 8533729872.0
0.0 Golden_Globe_Award en 1.0 4013515.0
0.0 Special:Search en 1.0 108047570.0
0.0 Main_Page en 1.0 8533729872.0
0.0 Main_Page en 1.0 8533729872.0
0.0 Mastani en 1.0 7194387.0
0.0 Star_Wars:_The_Force_Awakens en 1.0 360319666.0
0.0 Salma_Hayek en 1.0 4083965.0
0.0 Main_Page en 1.0 8533729872.0
0.0 Special:BlankPage en 1.0 942340592.0
0.0 Nimrat_Kaur en 1.0 2283958.0
0.0 Main_Page en 1.0 8533729872.0
0.0 Main_Page en 1.0 8533729872.0
0.0 Main_Page en 1.0 8533729872.0
0.0 .rss en 1.0 49554765.0
0.0 Special:UserLogin en 1.0 1047123130.0
0.0 Special:BlankPage en 1.0 942340592.0
0.0 Main_Page en 1.0 8533729872.0
0.0 Suki_Waterhouse en 1.0 1608730.0
0.0 Main_Page en 1.0 8533729872.0
0.0 Main_Page en 1.0 8533729872.0
0.0 Main_Page en 1.0 8533729872.0
0.0 Main_Page en 1.0 8533729872.0
0.0 Princess_Leia en 1.0 11619123.0
0.0 Special:UserLogin en 1.0 1047123130.0
0.0 Made_in_the_A.M. en 1.0 3540806.0
0.0 Muhammad_Ali en 1.0 19730033.0
0.0 Aokigahara en 1.0 10308064.0
0.0 Main_Page en 1.0 8533729872.0
0.0 Foo_Fighters en 1.0 6991068.0
0.0 Girl_Meets_World en 1.0 3841348.0
0.0 Main_Page en 1.0 8533729872.0
0.0 Special:BlankPage en 1.0 942340592.0
0.0 Main_Page en 1.0 8533729872.0
0.0 Main_Page en 1.0 8533729872.0
0.0 .NET_Framework en 1.0 7633978.0
0.0 2016_Pathankot_attack en 1.0 22086189.0
0.0 Main_Page en 1.0 8533729872.0
0.0 Windows_10 en 1.0 18323256.0
0.0 Special:UserLogin en 1.0 1047123130.0
0.0 Special:BlankPage en 1.0 942340592.0
0.0 Special:Search en 1.0 108047570.0
0.0 Main_Page en 1.0 8533729872.0
0.0 Avatar_(2009_film) en 1.0 37604703.0
0.0 Main_Page en 1.0 8533729872.0
0.0 Main_Page en 1.0 8533729872.0
0.0 File:Michel_Platini_2010.jpg en 1.0 9570496.0
0.0 Indian_elephant en 1.0 16392746.0
0.0 File:Evander_Holyfield_LA_2011.jpg en 1.0 175595651.0
0.0 Main_Page en 1.0 8533729872.0
0.0 Rita_Ora en 1.0 6073555.0
0.0 Main_Page en 1.0 8533729872.0
0.0 Special:UserLogin en 1.0 1047123130.0
0.0 Main_Page en 1.0 8533729872.0
0.0 Main_Page en 1.0 8533729872.0
0.0 _ en 1.0 7237335.0
0.0 Skrillex en 1.0 3831279.0
0.0 Special:BlankPage en 1.0 942340592.0
0.0 Main_Page en 1.0 8533729872.0
0.0 Crimson_Peak en 1.0 3532030.0
0.0 Main_Page en 1.0 8533729872.0
0.0 Main_Page en 1.0 8533729872.0
0.0 Chichijima_incident en 1.0 156777745.0
0.0 Thomas_Becket en 1.0 717677.0
0.0 Leonardo_da_Vinci en 1.0 21900802.0
0.0 Main_Page en 1.0 8533729872.0
0.0 New_York en 1.0 25978715.0
0.0 Special:UserLogin en 1.0 1047123130.0
0.0 Main_Page en 1.0 8533729872.0
0.0 Main_Page en 1.0 8533729872.0
0.0 Main_Page en 1.0 8533729872.0
0.0 William_Gibson en 1.0 280778305.0
0.0 Main_Page en 1.0 8533729872.0
0.0 Alec_Baldwin en 1.0 8531810.0
0.0 Special:BlankPage en 1.0 942340592.0
0.0 Special:UserLogin en 1.0 1047123130.0
0.0 Web_scraping en 1.0 28358326.0
0.0 Main_Page en 1.0 8533729872.0
0.0 Main_Page en 1.0 8533729872.0
0.0 Main_Page en 1.0 8533729872.0
0.0 Main_Page en 1.0 8533729872.0
0.0 Main_Page en 1.0 8533729872.0
0.0 Facebook en 1.0 118029963.0
0.0 Main_Page en 1.0 8533729872.0
0.0 Main_Page en 1.0 8533729872.0
0.0 Special:UserLogin en 1.0 1047123130.0
0.0 Special:UserLogin en 1.0 1047123130.0
0.0 Main_Page en 1.0 8533729872.0
0.0 Chichijima_incident en 1.0 156777745.0
0.0 Chichijima_incident en 1.0 156777745.0
0.0 Spider_silk en 1.0 28220925.0
0.0 Special:Search en 1.0 108047570.0
0.0 Special:BlankPage en 1.0 942340592.0
0.0 Main_Page en 1.0 8533729872.0
0.0 42nd_People%27s_Choice_Awards en 1.0 4080697.0
0.0 Greek_alphabet en 1.0 11118169.0
0.0 Main_Page en 1.0 8533729872.0
0.0 Main_Page en 1.0 8533729872.0
0.0 Main_Page en 1.0 8533729872.0
0.0 Hillary_Clinton_presidential_campaign,_2016 en 1.0 1013768180.0
0.0 Main_Page en 1.0 8533729872.0
0.0 Main_Page en 1.0 8533729872.0
0.0 Main_Page en 1.0 8533729872.0
0.0 Main_Page en 1.0 8533729872.0
0.0 Main_Page en 1.0 8533729872.0
0.0 Main_Page en 1.0 8533729872.0
0.0 Main_Page en 1.0 8533729872.0
0.0 Special:UserLogin en 1.0 1047123130.0
0.0 File:Golden_Globe_Trophy.jpg en 1.0 9956097.0
0.0 Main_Page en 1.0 8533729872.0
0.0 File:Evander_Holyfield_LA_2011.jpg en 1.0 175595651.0
0.0 Eternity_II_puzzle en 1.0 41705811.0
0.0 Sexual_intercourse en 1.0 17418490.0
0.0 Special:UserLogin en 1.0 1047123130.0
0.0 Special:BlankPage en 1.0 942340592.0
0.0 Main_Page en 1.0 8533729872.0
0.0 Demat_account en 1.0 174061131.0
0.0 Special:UserLogin en 1.0 1047123130.0
0.0 Main_Page en 1.0 8533729872.0
0.0 Prem_Ratan_Dhan_Payo en 1.0 4512261.0
0.0 Ludwig_von_Mises en 1.0 14814659.0
0.0 Demat_account en 1.0 174061131.0
0.0 Main_Page en 1.0 8533729872.0
0.0 HTTP_cookie en 1.0 8325945.0
0.0 Indian_cricket_team_in_Australia_in_2015%E2%80%9316 en 1.0 1853719.0
0.0 John_F._Kennedy en 1.0 67914120.0
0.0 Special:BlankPage en 1.0 942340592.0
0.0 Angelina_Jolie en 1.0 18054637.0
0.0 Main_Page en 1.0 8533729872.0
0.0 Special:BlankPage en 1.0 942340592.0
0.0 Main_Page en 1.0 8533729872.0
0.0 Mona_Lisa en 1.0 6461302.0
0.0 Main_Page en 1.0 8533729872.0
0.0 Special:BlankPage en 1.0 942340592.0
0.0 Main_Page en 1.0 8533729872.0
0.0 Main_Page en 1.0 8533729872.0
0.0 Bikini en 1.0 177244701.0
0.0 File:Evander_Holyfield_LA_2011.jpg en 1.0 175595651.0
0.0 Portal:Contents en 1.0 9401880.0
0.0 .rss en 1.0 49554765.0
0.0 Demat_account en 1.0 174061131.0
0.0 Main_Page en 1.0 8533729872.0
0.0 Rafael_dos_Anjos en 1.0 16916167.0
0.0 Main_Page en 1.0 8533729872.0
0.0 Main_Page en 1.0 8533729872.0
0.0 Main_Page en 1.0 8533729872.0
0.0 Main_Page en 1.0 8533729872.0
0.0 Bali en 1.0 6986026.0
0.0 Main_Page en 1.0 8533729872.0
0.0 Donald_Trump en 1.0 115639487.0
0.0 Main_Page en 1.0 8533729872.0
0.0 Main_Page en 1.0 8533729872.0
0.0 Main_Page en 1.0 8533729872.0
0.0 Main_Page en 1.0 8533729872.0
0.0 Special:UserLogin en 1.0 1047123130.0
0.0 Shadowhunters_(TV_series) en 1.0 3227659.0
0.0 Main_Page en 1.0 8533729872.0
0.0 Main_Page en 1.0 8533729872.0
0.0 Special:UserLogin en 1.0 1047123130.0
0.0 Ddd en 1.0 56799834.0
0.0 Special:UserLogin en 1.0 1047123130.0
0.0 Wazir_(film) en 1.0 28376882.0
0.0 Main_Page en 1.0 8533729872.0
0.0 Main_Page en 1.0 8533729872.0
0.0 Ethan_Couch en 1.0 3788690.0
0.0 Special:BlankPage en 1.0 942340592.0
0.0 Web_scraping en 1.0 28358326.0
0.0 Main_Page en 1.0 8533729872.0
0.0 Special:BlankPage en 1.0 942340592.0
0.0 Indian_Railways en 1.0 6913319.0
0.0 Special:Search en 1.0 108047570.0
0.0 Gnu_Public_License en 1.0 8416440.0
0.0 Republic_Day_(India) en 1.0 4242636.0
0.0 File:Evander_Holyfield_LA_2011.jpg en 1.0 175595651.0
0.0 Java_(programming_language) en 1.0 9701848.0
0.0 Bajirao_I en 1.0 18185555.0
0.0 Main_Page en 1.0 8533729872.0
0.0 Special:Search en 1.0 108047570.0
0.0 Main_Page en 1.0 8533729872.0
0.0 File:Ty_Lawson_Nuggets.jpg en 1.0 4031640.0
0.0 File:Ken_Griffey,_Jr._June_2009.jpg en 1.0 4631612.0
0.0 Special:Watchlist en 1.0 76035929.0
0.0 Main_Page en 1.0 8533729872.0
0.0 Zhang_Guotao en 1.0 4501311.0
0.0 Susan_B._Anthony en 1.0 16202072.0
0.0 Main_Page en 1.0 8533729872.0
0.0 Portal:Contents/Portals en 1.0 6022889.0
0.0 Special:UserLogin en 1.0 1047123130.0
0.0 Tax_Deducted_at_Source en 1.0 971441.0
0.0 Main_Page en 1.0 8533729872.0
0.0 Special:UserLogin en 1.0 1047123130.0
0.0 Demat_account en 1.0 174061131.0
0.0 Jammu_and_Kashmir en 1.0 13294309.0
0.0 Special:UserLogin en 1.0 1047123130.0
0.0 Main_Page en 1.0 8533729872.0
0.0 Main_Page en 1.0 8533729872.0
0.0 Denmark en 1.0 23203468.0
0.0 Special:Search en 1.0 108047570.0
0.0 File:Evander_Holyfield_LA_2011.jpg en 1.0 175595651.0
0.0 Main_Page en 1.0 8533729872.0
0.0 Main_Page en 1.0 8533729872.0
0.0 Main_Page en 1.0 8533729872.0
0.0 Category:All_articles_needing_additional_references en 1.0 19698128.0
0.0 List_of_stock_market_indices en 1.0 518834.0
0.0 Special:UserLogin en 1.0 1047123130.0
0.0 Special:UserLogin en 1.0 1047123130.0
0.0 Special:UserLogin en 1.0 1047123130.0
0.0 NCIS_(TV_series) en 1.0 10883693.0
0.0 Special:Export/Coenzyme_Q10 en 1.0 19872060.0
0.0 Special:BlankPage en 1.0 942340592.0
0.0 Main_Page en 1.0 8533729872.0
0.0 Main_Page en 1.0 8533729872.0
0.0 Main_Page en 1.0 8533729872.0
0.0 Main_Page en 1.0 8533729872.0
0.0 Main_Page en 1.0 8533729872.0
0.0 Main_Page en 1.0 8533729872.0
0.0 Special:Search en 1.0 108047570.0
0.0 Special:UserLogin en 1.0 1047123130.0
0.0 Main_Page en 1.0 8533729872.0
0.0 69th_British_Academy_Film_Awards en 1.0 2713385.0
0.0 Sylvester_Stallone en 1.0 15796968.0
0.0 Big_Bang_(South_Korean_band) en 1.0 7219075.0
0.0 Main_Page en 1.0 8533729872.0
0.0 Main_Page en 1.0 8533729872.0
0.0 Main_Page en 1.0 8533729872.0
0.0 Main_Page en 1.0 8533729872.0
0.0 Special:BlankPage en 1.0 942340592.0
0.0 The_Hateful_Eight en 1.0 37973477.0
0.0 File:Alain_Perrin_al_khor.jpg en 1.0 3802668.0
0.0 Main_Page en 1.0 8533729872.0
0.0 Main_Page en 1.0 8533729872.0
0.0 Demat_account en 1.0 174061131.0
0.0 Jodie_Foster en 1.0 7479906.0
0.0 Solar_power en 1.0 30679812.0
0.0 Main_Page en 1.0 8533729872.0
0.0 Demat_account en 1.0 174061131.0
0.0 wiki//en.wikiquote.org/wiki/special:search/wiki/w/index.php en 1.0 4042179.0
0.0 Main_Page en 1.0 8533729872.0
0.0 Main_Page en 1.0 8533729872.0
0.0 Chichijima_incident en 1.0 156777745.0
0.0 2016_Summer_Olympics en 1.0 22301767.0
0.0 Main_Page en 1.0 8533729872.0
0.0 Main_Page en 1.0 8533729872.0
0.0 Special:Watchlist en 1.0 76035929.0
0.0 Main_Page en 1.0 8533729872.0
0.0 Main_Page en 1.0 8533729872.0
0.0 Main_Page en 1.0 8533729872.0
0.0 Steven_Avery en 1.0 25258095.0
0.0 Main_Page en 1.0 8533729872.0
0.0 Opa en 1.0 6521820.0
0.0 Main_Page en 1.0 8533729872.0
0.0 Main_Page en 1.0 8533729872.0
0.0 West_Air_Sweden en 1.0 1587577.0
0.0 File:Donald_August_19_(cropped).jpg en 1.0 16354475.0
0.0 Special:Watchlist en 1.0 76035929.0
0.0 Ruby_Rose en 1.0 4190979.0
0.0 Main_Page en 1.0 8533729872.0
0.0 Main_Page en 1.0 8533729872.0
0.0 Main_Page en 1.0 8533729872.0
0.0 Main_Page en 1.0 8533729872.0
0.0 Main_Page en 1.0 8533729872.0
0.0 Main_Page en 1.0 8533729872.0
0.0 Special:UserLogin en 1.0 1047123130.0
0.0 Main_Page en 1.0 8533729872.0
0.0 wiki//en.wikipedia.org/w/index.php en 1.0 8360145.0
0.0 File:Evander_Holyfield_LA_2011.jpg en 1.0 175595651.0
0.0 Emily_Blunt en 1.0 10397534.0
0.0 Special:BlankPage en 1.0 942340592.0
0.0 Main_Page en 1.0 8533729872.0
0.0 Lycos en 1.0 10476017.0
0.0 Main_Page en 1.0 8533729872.0
0.0 Main_Page en 1.0 8533729872.0
0.0 Special:UserLogin en 1.0 1047123130.0
0.0 Main_Page en 1.0 8533729872.0
0.0 Main_Page en 1.0 8533729872.0
0.0 Main_Page en 1.0 8533729872.0
0.0 Main_Page en 1.0 8533729872.0
0.0 Special:UserLogin en 1.0 1047123130.0
0.0 Miss_Universe_2015 en 1.0 8384691.0
0.0 Main_Page en 1.0 8533729872.0
0.0 Special:UserLogin en 1.0 1047123130.0
0.0 Main_Page en 1.0 8533729872.0
0.0 Rome en 1.0 20410290.0
0.0 File:Gloriavanderbilt2.jpg en 1.0 1434971.0
0.0 Main_Page en 1.0 8533729872.0
0.0 Main_Page en 1.0 8533729872.0
0.0 Main_Page en 1.0 8533729872.0
0.0 Mufti_Mohammad_Sayeed en 1.0 8058813.0
0.0 Google en 1.0 74694473.0
0.0 Borussia_Dortmund en 1.0 7563075.0
0.0 Special:Search en 1.0 108047570.0
0.0 Main_Page en 1.0 8533729872.0
0.0 Main_Page en 1.0 8533729872.0
0.0 A._R._Rahman en 1.0 12374733.0
0.0 Main_Page en 1.0 8533729872.0
0.0 Cristiano_Ronaldo en 1.0 51130802.0
0.0 Main_Page en 1.0 8533729872.0
0.0 Special:Search en 1.0 108047570.0
0.0 Main_Page en 1.0 8533729872.0
0.0 Main_Page en 1.0 8533729872.0
0.0 Special:BlankPage en 1.0 942340592.0
0.0 Special:BlankPage en 1.0 942340592.0
0.0 Main_Page en 1.0 8533729872.0
0.0 Channing_Tatum en 1.0 21674983.0
0.0 Main_Page en 1.0 8533729872.0
0.0 Main_Page en 1.0 8533729872.0
0.0 Main_Page en 1.0 8533729872.0
0.0 Special:BlankPage en 1.0 942340592.0
0.0 Main_Page en 1.0 8533729872.0
0.0 Main_Page en 1.0 8533729872.0
0.0 Special:UserLogin en 1.0 1047123130.0
0.0 Main_Page en 1.0 8533729872.0
0.0 Main_Page en 1.0 8533729872.0
0.0 Main_Page en 1.0 8533729872.0
0.0 Bikini en 1.0 177244701.0
0.0 Making_a_Murderer en 1.0 33144160.0
0.0 List_of_Lip_Sync_Battle_episodes en 1.0 9514977.0
0.0 Main_Page en 1.0 8533729872.0
0.0 Martin_Shkreli en 1.0 5155979.0
0.0 Main_Page en 1.0 8533729872.0
0.0 Rose_Byrne en 1.0 3700852.0
0.0 Zoe_Saldana en 1.0 4436021.0
0.0 Main_Page en 1.0 8533729872.0
0.0 Main_Page en 1.0 8533729872.0
0.0 Main_Page en 1.0 8533729872.0
0.0 Special:BlankPage en 1.0 942340592.0
0.0 File:Najib_Razak_2008-08-21.jpg en 1.0 3457188.0
0.0 Main_Page en 1.0 8533729872.0
0.0 Maslow%27s_hierarchy_of_needs en 1.0 2613594.0
0.0 Special:BlankPage en 1.0 942340592.0
0.0 Special:Watchlist en 1.0 76035929.0
0.0 Main_Page en 1.0 8533729872.0
0.0 Template:Syrian_and_Iraqi_insurgency_detailed_map en 1.0 42628339.0
0.0 Main_Page en 1.0 8533729872.0
0.0 Main_Page en 1.0 8533729872.0
0.0 Main_Page en 1.0 8533729872.0
0.0 The_Flash_(2014_TV_series) en 1.0 18286807.0
0.0 Special:Search en 1.0 108047570.0
0.0 Call_of_Duty en 1.0 3966830.0
0.0 Main_Page en 1.0 8533729872.0
0.0 Main_Page en 1.0 8533729872.0
0.0 Maroon_5 en 1.0 7895386.0
0.0 Special:BlankPage en 1.0 942340592.0
0.0 Main_Page en 1.0 8533729872.0
0.0 Shanghai en 1.0 59780434.0
0.0 Main_Page en 1.0 8533729872.0
0.0 Rafael_dos_Anjos en 1.0 16916167.0
0.0 Main_Page en 1.0 8533729872.0
0.0 Main_Page en 1.0 8533729872.0
0.0 Application_programming_interface en 1.0 6696285.0
0.0 Special:BlankPage en 1.0 942340592.0
0.0 Main_Page en 1.0 8533729872.0
0.0 Main_Page en 1.0 8533729872.0
0.0 India en 1.0 125713628.0
0.0 Netflix en 1.0 169502962.0
0.0 Special:RecentChanges en 1.0 21739539.0
0.0 Special:BlankPage en 1.0 942340592.0
0.0 Dale_D._Myers en 1.0 5764803.0
0.0 File:Evander_Holyfield_LA_2011.jpg en 1.0 175595651.0
0.0 Main_Page en 1.0 8533729872.0
0.0 List_of_feed_aggregators en 1.0 11082992.0
0.0 Main_Page en 1.0 8533729872.0
0.0 Main_Page en 1.0 8533729872.0
0.0 Main_Page en 1.0 8533729872.0
0.0 Main_Page en 1.0 8533729872.0
0.0 Main_Page en 1.0 8533729872.0
0.0 Special:UserLogin en 1.0 1047123130.0
0.0 Special:UserLogin en 1.0 1047123130.0
0.0 Wilt_Chamberlain en 1.0 11070757.0
0.0 Steven_Avery en 1.0 25258095.0
0.0 Main_Page en 1.0 8533729872.0
0.0 List_of_Bollywood_films_of_2015 en 1.0 33642693.0
0.0 Main_Page en 1.0 8533729872.0
0.0 Main_Page en 1.0 8533729872.0
0.0 Maggie_Lawson en 1.0 2453720.0
0.0 Spartacus en 1.0 3302152.0
0.0 Heroes_Reborn_(miniseries) en 1.0 20334182.0
0.0 Creed_(film) en 1.0 12465330.0
0.0 Special:BlankPage en 1.0 942340592.0
0.0 Main_Page en 1.0 8533729872.0
0.0 Main_Page en 1.0 8533729872.0
0.0 Chichijima_incident en 1.0 156777745.0
0.0 Peaky_Blinders_(TV_series) en 1.0 2174171.0
0.0 Margaret_Thatcher en 1.0 14515813.0
0.0 Main_Page en 1.0 8533729872.0
0.0 Main_Page en 1.0 8533729872.0
0.0 Main_Page en 1.0 8533729872.0
0.0 Main_Page en 1.0 8533729872.0
0.0 Seattle en 1.0 17183865.0
0.0 Special:BlankPage en 1.0 942340592.0
0.0 Main_Page en 1.0 8533729872.0
0.0 Main_Page en 1.0 8533729872.0
0.0 Main_Page en 1.0 8533729872.0
0.0 Special:BlankPage en 1.0 942340592.0
0.0 Demat_account en 1.0 174061131.0
0.0 Main_Page en 1.0 8533729872.0
0.0 Hewlett-Packard en 1.0 9419968.0
0.0 Jaden_Smith en 1.0 2311202.0
0.0 Main_Page en 1.0 8533729872.0
0.0 Main_Page en 1.0 8533729872.0
0.0 Main_Page en 1.0 8533729872.0
0.0 Main_Page en 1.0 8533729872.0
0.0 Main_Page en 1.0 8533729872.0
0.0 Christopher_Reeve en 1.0 20256261.0
0.0 Adam_Levine en 1.0 7637921.0
0.0 Main_Page en 1.0 8533729872.0
0.0 Main_Page en 1.0 8533729872.0
0.0 Main_Page en 1.0 8533729872.0
0.0 Main_Page en 1.0 8533729872.0
0.0 Main_Page en 1.0 8533729872.0
0.0 Main_Page en 1.0 8533729872.0
0.0 Making_a_Murderer en 1.0 33144160.0
0.0 Chichijima_incident en 1.0 156777745.0
0.0 Main_Page en 1.0 8533729872.0
0.0 File:Mein_Kampf_dust_jacket.jpeg en 1.0 3106613.0
0.0 Main_Page en 1.0 8533729872.0
0.0 Main_Page en 1.0 8533729872.0
0.0 UFC_194 en 1.0 2253574.0
0.0 Main_Page en 1.0 8533729872.0
0.0 Main_Page en 1.0 8533729872.0
0.0 Main_Page en 1.0 8533729872.0
0.0 Main_Page en 1.0 8533729872.0
0.0 Special:UserLogin en 1.0 1047123130.0
0.0 Special:UserLogin en 1.0 1047123130.0
0.0 Main_Page en 1.0 8533729872.0
0.0 Vellaiya_Irukiravan_Poi_Solla_Maatan en 1.0 1244476.0
0.0 Special:UserLogin en 1.0 1047123130.0
0.0 World_War_II en 1.0 67299809.0
0.0 USB_Type-C en 1.0 1968419.0
0.0 Main_Page en 1.0 8533729872.0
0.0 Main_Page en 1.0 8533729872.0
0.0 Main_Page en 1.0 8533729872.0
0.0 Main_Page en 1.0 8533729872.0
0.0 Main_Page en 1.0 8533729872.0
0.0 Main_Page en 1.0 8533729872.0
0.0 Main_Page en 1.0 8533729872.0
0.0 Main_Page en 1.0 8533729872.0
0.0 A_Head_Full_of_Dreams en 1.0 3935191.0
0.0 Main_Page en 1.0 8533729872.0
0.0 File:Calgary_Flames_Logo.svg en 1.0 3449658.0
0.0 Ted_Cruz en 1.0 37071537.0
0.0 Main_Page en 1.0 8533729872.0
0.0 Web_scraping en 1.0 28358326.0
0.0 Main_Page en 1.0 8533729872.0
0.0 Non-Aligned_Movement en 1.0 8396088.0
0.0 Body_mass_index en 1.0 4177872.0
0.0 Main_Page en 1.0 8533729872.0
0.0 Michael_Jordan en 1.0 43807492.0
0.0 Special:Search en 1.0 108047570.0
0.0 Star_Wars en 1.0 136598327.0
0.0 Special:BlankPage en 1.0 942340592.0
0.0 Main_Page en 1.0 8533729872.0
0.0 Special:UserLogin en 1.0 1047123130.0
0.0 Special:UserLogin en 1.0 1047123130.0
0.0 Special:UserLogin en 1.0 1047123130.0
0.0 Main_Page en 1.0 8533729872.0
0.0 Kristina_Rihanoff en 1.0 3495956.0
0.0 Main_Page en 1.0 8533729872.0
0.0 Special:UserLogin en 1.0 1047123130.0
0.0 Main_Page en 1.0 8533729872.0
0.0 Main_Page en 1.0 8533729872.0
0.0 Cephalopod en 1.0 103351379.0
0.0 Main_Page en 1.0 8533729872.0
0.0 Main_Page en 1.0 8533729872.0
0.0 Special:BlankPage en 1.0 942340592.0
0.0 Main_Page en 1.0 8533729872.0
0.0 Main_Page en 1.0 8533729872.0
0.0 Special:BlankPage en 1.0 942340592.0
0.0 Bajirao_Mastani en 1.0 24566641.0
0.0 Brock_Lesnar en 1.0 10699202.0
0.0 Unit_731 en 1.0 36593723.0
0.0 Main_Page en 1.0 8533729872.0
0.0 Viscosity en 1.0 5257785.0
0.0 Main_Page en 1.0 8533729872.0
0.0 Main_Page en 1.0 8533729872.0
0.0 Special:UserLogin en 1.0 1047123130.0
0.0 Main_Page en 1.0 8533729872.0
0.0 Main_Page en 1.0 8533729872.0
0.0 Main_Page en 1.0 8533729872.0
0.0 Cate_Blanchett en 1.0 15507768.0
0.0 Moon en 1.0 20332611.0
0.0 Main_Page en 1.0 8533729872.0
0.0 Main_Page en 1.0 8533729872.0
0.0 Main_Page en 1.0 8533729872.0
0.0 Jason_Statham en 1.0 3907846.0
0.0 Special:BlankPage en 1.0 942340592.0
0.0 Main_Page en 1.0 8533729872.0
0.0 Project_management en 1.0 8590138.0
0.0 List_of_Star_Wars_Rebels_episodes en 1.0 4545794.0
0.0 Main_Page en 1.0 8533729872.0
0.0 Main_Page en 1.0 8533729872.0
0.0 Main_Page en 1.0 8533729872.0
0.0 Main_Page en 1.0 8533729872.0
0.0 Main_Page en 1.0 8533729872.0
0.0 Main_Page en 1.0 8533729872.0
0.0 Special:UserLogin en 1.0 1047123130.0
0.0 Special:UserLogin en 1.0 1047123130.0
0.0 Main_Page en 1.0 8533729872.0
0.0 Main_Page en 1.0 8533729872.0
0.0 Main_Page en 1.0 8533729872.0
0.0 Special:BlankPage en 1.0 942340592.0
0.0 Main_Page en 1.0 8533729872.0
0.0 Chichijima_incident en 1.0 156777745.0
0.0 Main_Page en 1.0 8533729872.0
0.0 Main_Page en 1.0 8533729872.0
0.0 Making_a_Murderer en 1.0 33144160.0
0.0 Main_Page en 1.0 8533729872.0
0.0 Main_Page en 1.0 8533729872.0
0.0 Greece en 1.0 21226329.0
0.0 Category:CS1_errors:_dates en 1.0 1768310.0
0.0 Main_Page en 1.0 8533729872.0
0.0 Main_Page en 1.0 8533729872.0
0.0 Main_Page en 1.0 8533729872.0
0.0 Main_Page en 1.0 8533729872.0
0.0 File:Evander_Holyfield_LA_2011.jpg en 1.0 175595651.0
0.0 Main_Page en 1.0 8533729872.0
0.0 Main_Page en 1.0 8533729872.0
0.0 The_Hunger_Games_(film_series) en 1.0 2973590.0
0.0 Belgium en 1.0 19752747.0
0.0 Java_(programming_language) en 1.0 9701848.0
0.0 New_Year%27s_Eve_sexual_assaults_in_Germany en 1.0 29613078.0
0.0 Special:UserLogin en 1.0 1047123130.0
0.0 Main_Page en 1.0 8533729872.0
0.0 Stephen_Curry en 1.0 12589693.0
0.0 Main_Page en 1.0 8533729872.0
0.0 Chichijima_incident en 1.0 156777745.0
0.0 Special:HideBanners en 1.0 0.0
0.0 Main_Page en 1.0 8533729872.0
0.0 Special:BlankPage en 1.0 942340592.0
0.0 Main_Page en 1.0 8533729872.0
0.0 Special:Search en 1.0 108047570.0
0.0 New_York_City en 1.0 56453794.0
0.0 Mehbooba_Mufti en 1.0 4655458.0
0.0 Eternity_II_puzzle en 1.0 41705811.0
0.0 File:DK-Chel15_(19).jpg en 1.0 3532412.0
0.0 Kishwar_Merchant en 1.0 1398012.0
0.0 Unit_731 en 1.0 36593723.0
0.0 Portal:Current_events en 1.0 77636666.0
0.0 wiki//en.wikinews.org/wiki/special:search/wiki/w/index.php en 1.0 3760357.0
0.0 Main_Page en 1.0 8533729872.0
0.0 Main_Page en 1.0 8533729872.0
0.0 Main_Page en 1.0 8533729872.0
0.0 Main_Page en 1.0 8533729872.0
0.0 Main_Page en 1.0 8533729872.0
0.0 File:Philadelphia_Inquirer_05022011.jpg en 1.0 1145432.0
0.0 Britt_Robertson en 1.0 2112789.0
0.0 Main_Page en 1.0 8533729872.0
0.0 Black_Nazarene en 1.0 4274875.0
0.0 Eternity_II_puzzle en 1.0 41705811.0
0.0 Special:BlankPage en 1.0 942340592.0
0.0 Main_Page en 1.0 8533729872.0
0.0 The_Intern_(2015_film) en 1.0 3052335.0
0.0 Main_Page en 1.0 8533729872.0
0.0 Main_Page en 1.0 8533729872.0
0.0 Richard_Nixon en 1.0 23714281.0
0.0 Main_Page en 1.0 8533729872.0
0.0 Mufti_Mohammad_Sayeed en 1.0 8058813.0
0.0 Arab_League en 1.0 5643368.0
0.0 Main_Page en 1.0 8533729872.0
0.0 Harry_Potter_(film_series) en 1.0 8935606.0
0.0 Main_Page en 1.0 8533729872.0
0.0 Main_Page en 1.0 8533729872.0
0.0 Main_Page en 1.0 8533729872.0
0.0 Main_Page en 1.0 8533729872.0
0.0 Demat_account en 1.0 174061131.0
0.0 Main_Page en 1.0 8533729872.0
0.0 Netflix en 1.0 169502962.0
0.0 Main_Page en 1.0 8533729872.0
0.0 Bruce_Lee en 1.0 12743831.0
0.0 O._J._Simpson en 1.0 9728065.0
0.0 Main_Page en 1.0 8533729872.0
0.0 Kendrick_Lamar en 1.0 23697644.0
0.0 Special:BlankPage en 1.0 942340592.0
0.0 File:Evander_Holyfield_LA_2011.jpg en 1.0 175595651.0
0.0 Main_Page en 1.0 8533729872.0
0.0 List_of_Bollywood_films_of_2016 en 1.0 28421096.0
0.0 Monica_Byrne en 1.0 5122421.0
0.0 Steve_Jobs en 1.0 49987870.0
0.0 Main_Page en 1.0 8533729872.0
0.0 Zinedine_Zidane en 1.0 22018056.0
0.0 Ammonia en 1.0 16041965.0
0.0 Main_Page en 1.0 8533729872.0
0.0 Main_Page en 1.0 8533729872.0
0.0 Main_Page en 1.0 8533729872.0
0.0 Main_Page en 1.0 8533729872.0
0.0 List_of_Top_Gear_episodes en 1.0 5014670.0
0.0 Christopher_Columbus en 1.0 11743522.0
0.0 Main_Page en 1.0 8533729872.0
0.0 Main_Page en 1.0 8533729872.0
0.0 Special:BlankPage en 1.0 942340592.0
0.0 Main_Page en 1.0 8533729872.0
0.0 IP_Code en 1.0 1953081.0
0.0 Bajirao_Mastani en 1.0 24566641.0
0.0 Adolf_Hitler en 1.0 47211435.0
0.0 Main_Page en 1.0 8533729872.0
0.0 Wazir_(film) en 1.0 28376882.0
0.0 Main_Page en 1.0 8533729872.0
0.0 Twitter en 1.0 24911735.0
0.0 Main_Page en 1.0 8533729872.0
0.0 Death_in_Paradise_(TV_series) en 1.0 2976100.0
0.0 Main_Page en 1.0 8533729872.0
0.0 Special:BlankPage en 1.0 942340592.0
0.0 Main_Page en 1.0 8533729872.0
0.0 Main_Page en 1.0 8533729872.0
0.0 Main_Page en 1.0 8533729872.0
0.0 Deaths_in_2016 en 1.0 53894002.0
0.0 Main_Page en 1.0 8533729872.0
0.0 Main_Page en 1.0 8533729872.0
0.0 Main_Page en 1.0 8533729872.0
0.0 Main_Page en 1.0 8533729872.0
0.0 Main_Page en 1.0 8533729872.0
0.0 XXXX en 1.0 1342999.0
0.0 Restriction_of_Hazardous_Substances_Directive en 1.0 18381559.0
0.0 Category:Wikipedia_articles_with_VIAF_identifiers en 1.0 2572981.0
0.0 Main_Page en 1.0 8533729872.0
0.0 13_Hours:_The_Secret_Soldiers_of_Benghazi en 1.0 4594653.0
0.0 Main_Page en 1.0 8533729872.0
0.0 Wiki en 1.0 25863464.0
0.0 Main_Page en 1.0 8533729872.0
0.0 Main_Page en 1.0 8533729872.0
0.0 Main_Page en 1.0 8533729872.0
0.0 Main_Page en 1.0 8533729872.0
0.0 Main_Page en 1.0 8533729872.0
0.0 Special:UserLogin en 1.0 1047123130.0
0.0 Hu_Di en 1.0 4928028.0
0.0 Tesla_Motors en 1.0 15899035.0
0.0 Harshvardhan_Rane en 1.0 1186823.0
0.0 Main_Page en 1.0 8533729872.0
0.0 Special:HideBanners en 1.0 0.0
0.0 Main_Page en 1.0 8533729872.0
0.0 Spirited_Away en 1.0 5629418.0
0.0 Java_(programming_language) en 1.0 9701848.0
0.0 Special:BlankPage en 1.0 942340592.0
0.0 Main_Page en 1.0 8533729872.0
0.0 Special:UserLogin en 1.0 1047123130.0
0.0 Main_Page en 1.0 8533729872.0
0.0 Flush_toilet en 1.0 19101791.0
0.0 File:Matthew_Morrison_Peabody_2010_(cropped).jpg en 1.0 8598616.0
0.0 Emilia_Clarke en 1.0 2626314.0
0.0 Main_Page en 1.0 8533729872.0
0.0 Special:BlankPage en 1.0 942340592.0
0.0 Main_Page en 1.0 8533729872.0
0.0 Special:UserLogin en 1.0 1047123130.0
0.0 China en 1.0 110184485.0
0.0 Main_Page en 1.0 8533729872.0
0.0 Chichijima_incident en 1.0 156777745.0
0.0 The_Avengers_(2012_film) en 1.0 12306243.0
0.0 Special:UserLogin en 1.0 1047123130.0
0.0 Main_Page en 1.0 8533729872.0
0.0 Main_Page en 1.0 8533729872.0
0.0 Star_Wars_Rebels en 1.0 14772965.0
0.0 Main_Page en 1.0 8533729872.0
0.0 Main_Page en 1.0 8533729872.0
0.0 Agile_software_development en 1.0 11794505.0
0.0 Main_Page en 1.0 8533729872.0
0.0 Blackstar_(David_Bowie_album) en 1.0 16152081.0
0.0 Poe_Dameron en 1.0 3262836.0
0.0 Spider-Man en 1.0 9397428.0
0.0 Main_Page en 1.0 8533729872.0
0.0 Special:UserLogin en 1.0 1047123130.0
0.0 Jessica_Alba en 1.0 5853187.0
0.0 Special:UserLogin en 1.0 1047123130.0
0.0 Denzel_Washington en 1.0 4969039.0
0.0 Special:BlankPage en 1.0 942340592.0
0.0 Main_Page en 1.0 8533729872.0
0.0 Ken_Griffey,_Sr. en 1.0 2307777.0
0.0 Main_Page en 1.0 8533729872.0
0.0 Sienna_Miller en 1.0 4414334.0
0.0 Main_Page en 1.0 8533729872.0
0.0 Android_(operating_system) en 1.0 39396502.0
0.0 Java_(programming_language) en 1.0 9701848.0
0.0 Main_Page en 1.0 8533729872.0
0.0 Special:UserLogin en 1.0 1047123130.0
0.0 Shia%E2%80%93Sunni_relations en 1.0 9353910.0
0.0 Jimi_Hendrix en 1.0 14609999.0
0.0 Main_Page en 1.0 8533729872.0
0.0 Main_Page en 1.0 8533729872.0
0.0 Django_Unchained en 1.0 8941794.0
0.0 List_of_Steven_Universe_episodes en 1.0 46549233.0
0.0 Main_Page en 1.0 8533729872.0
0.0 Main_Page en 1.0 8533729872.0
0.0 2016_WTA_Tour en 1.0 10728596.0
0.0 Knock_Knock_(2015_film) en 1.0 1833241.0
0.0 Main_Page en 1.0 8533729872.0
0.0 List_of_countries_and_dependencies_by_area en 1.0 12807181.0
0.0 Special:BlankPage en 1.0 942340592.0
0.0 William_Gibson en 1.0 280778305.0
0.0 Main_Page en 1.0 8533729872.0
0.0 Main_Page en 1.0 8533729872.0
0.0 Demat_account en 1.0 174061131.0
0.0 Main_Page en 1.0 8533729872.0
0.0 index.html en 1.0 14152311.0
0.0 Main_Page en 1.0 8533729872.0
0.0 Main_Page en 1.0 8533729872.0
0.0 Main_Page en 1.0 8533729872.0
0.0 Main_Page en 1.0 8533729872.0
0.0 SWOT_analysis en 1.0 3393715.0
0.0 Web_scraping en 1.0 28358326.0
0.0 Main_Page en 1.0 8533729872.0
0.0 Main_Page en 1.0 8533729872.0
0.0 Main_Page en 1.0 8533729872.0
0.0 Big_Sister_%28brothel%29 en 1.0 2306829.0
0.0 Main_Page en 1.0 8533729872.0
0.0 List_of_Family_Guy_episodes en 1.0 18977781.0
0.0 File:Evander_Holyfield_LA_2011.jpg en 1.0 175595651.0
0.0 Mot%C3%B6rhead en 1.0 12996878.0
0.0 Main_Page en 1.0 8533729872.0
0.0 Marlon_Wayans en 1.0 1544653.0
0.0 Into_the_Badlands_(TV_series) en 1.0 2421207.0
0.0 Main_Page en 1.0 8533729872.0
0.0 Main_Page en 1.0 8533729872.0
0.0 Special:UserLogin en 1.0 1047123130.0
0.0 List_of_It%27s_Always_Sunny_in_Philadelphia_episodes en 1.0 3789400.0
0.0 Special:UserLogin en 1.0 1047123130.0
0.0 Main_Page en 1.0 8533729872.0
0.0 Star_Wars_Episode_I:_The_Phantom_Menace en 1.0 23505327.0
0.0 Main_Page en 1.0 8533729872.0
0.0 Main_Page en 1.0 8533729872.0
0.0 Jericho_(2016_TV_series) en 1.0 4895146.0
0.0 Main_Page en 1.0 8533729872.0
0.0 Main_Page en 1.0 8533729872.0
0.0 Main_Page en 1.0 8533729872.0
0.0 Main_Page en 1.0 8533729872.0
0.0 List_of_countries_by_Human_Development_Index en 1.0 9739502.0
0.0 Eternity_II_puzzle en 1.0 41705811.0
0.0 Main_Page en 1.0 8533729872.0
0.0 Madarihat-Birpara_(community_development_block) en 1.0 9453269.0
0.0 Main_Page en 1.0 8533729872.0
0.0 Main_Page en 1.0 8533729872.0
0.0 File:Evander_Holyfield_LA_2011.jpg en 1.0 175595651.0
0.0 Special:BlankPage en 1.0 942340592.0
0.0 Main_Page en 1.0 8533729872.0
0.0 Barack_Obama en 1.0 187934080.0
0.0 Main_Page en 1.0 8533729872.0
0.0 Main_Page en 1.0 8533729872.0
0.0 Main_Page en 1.0 8533729872.0
0.0 Special:Search en 1.0 108047570.0
0.0 Main_Page en 1.0 8533729872.0
0.0 Batman_v_Superman:_Dawn_of_Justice en 1.0 13493781.0
0.0 Special:Search en 1.0 108047570.0
0.0 Rashida_Jones en 1.0 4261278.0
0.0 Bajirao_Mastani en 1.0 24566641.0
0.0 Main_Page en 1.0 8533729872.0
0.0 Main_Page en 1.0 8533729872.0
0.0 Main_Page en 1.0 8533729872.0
0.0 Felicity_Jones en 1.0 3449371.0
0.0 Nominal_Pipe_Size en 1.0 1516680.0
0.0 Main_Page en 1.0 8533729872.0
0.0 Special:BlankPage en 1.0 942340592.0
0.0 Main_Page en 1.0 8533729872.0
0.0 Main_Page en 1.0 8533729872.0
0.0 Jenna_Dewan en 1.0 24310477.0
0.0 Main_Page en 1.0 8533729872.0
0.0 Main_Page en 1.0 8533729872.0
0.0 File:Evander_Holyfield_LA_2011.jpg en 1.0 175595651.0
0.0 Main_Page en 1.0 8533729872.0
0.0 Special:UserLogin en 1.0 1047123130.0
0.0 Cuba en 1.0 21093176.0
0.0 Main_Page en 1.0 8533729872.0
0.0 Manchester_City_F.C. en 1.0 6890475.0
0.0 Main_Page en 1.0 8533729872.0
0.0 Main_Page en 1.0 8533729872.0
0.0 Special:BlankPage en 1.0 942340592.0
0.0 Special:BlankPage en 1.0 942340592.0
0.0 Demat_account en 1.0 174061131.0
0.0 Main_Page en 1.0 8533729872.0
0.0 Main_Page en 1.0 8533729872.0
0.0 Ghostbusters en 1.0 7034630.0
0.0 Main_Page en 1.0 8533729872.0
0.0 Main_Page en 1.0 8533729872.0
0.0 Main_Page en 1.0 8533729872.0
0.0 Main_Page en 1.0 8533729872.0
0.0 Special:UserLogin en 1.0 1047123130.0
0.0 Special:BlankPage en 1.0 942340592.0
0.0 Main_Page en 1.0 8533729872.0
0.0 Main_Page en 1.0 8533729872.0
0.0 Special:BlankPage en 1.0 942340592.0
0.0 Martin_Luther_King,_Jr. en 1.0 28063254.0
0.0 Web_scraping en 1.0 28358326.0
0.0 Special:BlankPage en 1.0 942340592.0
0.0 Main_Page en 1.0 8533729872.0
0.0 Special:BlankPage en 1.0 942340592.0
0.0 Ukraine en 1.0 30745968.0
0.0 Rami_Malek en 1.0 2065521.0
0.0 Citric_acid_cycle en 1.0 4705064.0
0.0 Chichijima_incident en 1.0 156777745.0
0.0 Friedrich_Nietzsche en 1.0 11769058.0
0.0 Main_Page en 1.0 8533729872.0
0.0 List_of_company_registers en 1.0 6376216.0
0.0 Main_Page en 1.0 8533729872.0
0.0 Web_scraping en 1.0 28358326.0
0.0 List_of_highest-grossing_films en 1.0 167724226.0
0.0 Main_Page en 1.0 8533729872.0
0.0 Historiography_of_science en 1.0 10124868.0
0.0 Main_Page en 1.0 8533729872.0
0.0 Main_Page en 1.0 8533729872.0
0.0 Main_Page en 1.0 8533729872.0
0.0 Main_Page en 1.0 8533729872.0
0.0 The_Conjuring_2:_The_Enfield_Poltergeist en 1.0 7636366.0
0.0 Main_Page en 1.0 8533729872.0
0.0 Main_Page en 1.0 8533729872.0
0.0 Main_Page en 1.0 8533729872.0
0.0 Main_Page en 1.0 8533729872.0
0.0 Ranveer_Singh en 1.0 5556818.0
0.0 Special:BlankPage en 1.0 942340592.0
0.0 Main_Page en 1.0 8533729872.0
0.0 Main_Page en 1.0 8533729872.0
0.0 Mein_Kampf en 1.0 13548506.0
0.0 Macau en 1.0 15926870.0
0.0 Lemmy en 1.0 20806421.0
0.0 Special:UserLogin en 1.0 1047123130.0
0.0 Special:UserLogin en 1.0 1047123130.0
0.0 Main_Page en 1.0 8533729872.0
0.0 wiki/android-app://org.wikipedia/http/en.m.wikipedia.org/wiki/wiki/w/index.php en 1.0 4018649.0
0.0 Chichijima_incident en 1.0 156777745.0
0.0 Main_Page en 1.0 8533729872.0
0.0 Main_Page en 1.0 8533729872.0
0.0 Main_Page en 1.0 8533729872.0
0.0 Aokigahara en 1.0 10308064.0
0.0 Main_Page en 1.0 8533729872.0
0.0 Main_Page en 1.0 8533729872.0
0.0 Main_Page en 1.0 8533729872.0
0.0 Main_Page en 1.0 8533729872.0
0.0 Main_Page en 1.0 8533729872.0
0.0 Main_Page en 1.0 8533729872.0
0.0 Main_Page en 1.0 8533729872.0
0.0 Lana_Del_Rey en 1.0 12636465.0
0.0 Special:Search en 1.0 108047570.0
0.0 Main_Page en 1.0 8533729872.0
0.0 Main_Page en 1.0 8533729872.0
0.0 Main_Page en 1.0 8533729872.0
0.0 Main_Page en 1.0 8533729872.0
0.0 Main_Page en 1.0 8533729872.0
0.0 Main_Page en 1.0 8533729872.0
0.0 Main_Page en 1.0 8533729872.0
0.0 Singapore en 1.0 50501023.0
0.0 The_Girl_Who_Loved_Tom_Gordon en 1.0 4494233.0
0.0 List_of_Steven_Universe_episodes en 1.0 46549233.0
0.0 Main_Page en 1.0 8533729872.0
0.0 File:Evander_Holyfield_LA_2011.jpg en 1.0 175595651.0
0.0 Main_Page en 1.0 8533729872.0
0.0 File:Japaneese_War_Trials_A.pdf en 1.0 4524437.0
0.0 Main_Page en 1.0 8533729872.0
0.0 Biochemistry en 1.0 8136280.0
0.0 Special:UserLogin en 1.0 1047123130.0
0.0 Special:BlankPage en 1.0 942340592.0
0.0 Main_Page en 1.0 8533729872.0
0.0 Special:BlankPage en 1.0 942340592.0
0.0 Main_Page en 1.0 8533729872.0
0.0 Main_Page en 1.0 8533729872.0
0.0 Alcohol en 1.0 22711353.0
0.0 File:Evander_Holyfield_LA_2011.jpg en 1.0 175595651.0
0.0 Main_Page en 1.0 8533729872.0
0.0 Main_Page en 1.0 8533729872.0
0.0 Main_Page en 1.0 8533729872.0
0.0 Main_Page en 1.0 8533729872.0
0.0 3D_printing en 1.0 10732984.0
0.0 Main_Page en 1.0 8533729872.0
0.0 Enfield_Poltergeist en 1.0 6505949.0
0.0 Main_Page en 1.0 8533729872.0
0.0 Main_Page en 1.0 8533729872.0
0.0 John_Boyega en 1.0 17504336.0
0.0 True_Detective_(TV_series) en 1.0 5503244.0
0.0 Main_Page en 1.0 8533729872.0
0.0 Main_Page en 1.0 8533729872.0
0.0 File:Donald_August_19_(cropped).jpg en 1.0 16354475.0
0.0 Main_Page en 1.0 8533729872.0
0.0 File:Evander_Holyfield_LA_2011.jpg en 1.0 175595651.0
0.0 Main_Page en 1.0 8533729872.0
0.0 Special:HideBanners en 1.0 0.0
0.0 Special:UserLogin en 1.0 1047123130.0
0.0 Main_Page en 1.0 8533729872.0
0.0 Main_Page en 1.0 8533729872.0
0.0 IPTV en 1.0 5633707.0
0.0 Chikki_Panday en 1.0 4896357.0
0.0 Cephalopod en 1.0 103351379.0
0.0 Main_Page en 1.0 8533729872.0
0.0 Philosophy en 1.0 14596659.0
0.0 Bikini en 1.0 177244701.0
0.0 Fate/stay_night en 1.0 4035703.0
0.0 Special:BlankPage en 1.0 942340592.0
0.0 Demat_account en 1.0 174061131.0
0.0 Main_Page en 1.0 8533729872.0
0.0 File:Evander_Holyfield_LA_2011.jpg en 1.0 175595651.0
0.0 Main_Page en 1.0 8533729872.0
0.0 Main_Page en 1.0 8533729872.0
0.0 Main_Page en 1.0 8533729872.0
0.0 Main_Page en 1.0 8533729872.0
0.0 Main_Page en 1.0 8533729872.0
0.0 Main_Page en 1.0 8533729872.0
0.0 Main_Page en 1.0 8533729872.0
0.0 Main_Page en 1.0 8533729872.0
0.0 Bashar_al-Assad en 1.0 26936556.0
0.0 Main_Page en 1.0 8533729872.0
0.0 Main_Page en 1.0 8533729872.0
0.0 New_Year%27s_Eve_sexual_assaults_in_Germany en 1.0 29613078.0
0.0 Interstellar_(film) en 1.0 16742718.0
0.0 Main_Page en 1.0 8533729872.0
0.0 List_of_The_Flash_(2014_TV_series)_episodes en 1.0 18717375.0
0.0 Main_Page en 1.0 8533729872.0
0.0 Cat en 1.0 17080087.0
0.0 Chichijima_incident en 1.0 156777745.0
0.0 Main_Page en 1.0 8533729872.0
0.0 Main_Page en 1.0 8533729872.0
0.0 Main_Page en 1.0 8533729872.0
0.0 Tim_Tebow en 1.0 10735782.0
0.0 Main_Page en 1.0 8533729872.0
0.0 Special:BlankPage en 1.0 942340592.0
0.0 Michael_Burry en 1.0 4160559.0
0.0 Special:Search en 1.0 108047570.0
0.0 Andrew_Jackson en 1.0 14935822.0
0.0 Main_Page en 1.0 8533729872.0
0.0 Special:UserLogin en 1.0 1047123130.0
0.0 India en 1.0 125713628.0
0.0 Main_Page en 1.0 8533729872.0
0.0 File:Logo_FC_Bayern_M en 1.0 603450.0
0.0 Inception en 1.0 7897909.0
0.0 Main_Page en 1.0 8533729872.0
0.0 Main_Page en 1.0 8533729872.0
0.0 Special:UserLogin en 1.0 1047123130.0
0.0 Chichijima_incident en 1.0 156777745.0
0.0 YouTube en 1.0 70921797.0
0.0 Wazir_(film) en 1.0 28376882.0
0.0 Beauty_and_the_Bestie en 1.0 1546386.0
0.0 Main_Page en 1.0 8533729872.0
0.0 Tokyo en 1.0 14021600.0
0.0 Special:UserLogin en 1.0 1047123130.0
0.0 How_to_Get_Away_with_Murder_(season_2) en 1.0 3518342.0
0.0 Main_Page en 1.0 8533729872.0
0.0 Main_Page en 1.0 8533729872.0
0.0 Special:RecentChanges en 1.0 21739539.0
0.0 Special:BlankPage en 1.0 942340592.0
0.0 Sun en 1.0 15882244.0
0.0 Culture en 1.0 8020395.0
0.0 Main_Page en 1.0 8533729872.0
0.0 Special:BlankPage en 1.0 942340592.0
0.0 Los_Angeles_FC en 1.0 6978453.0
0.0 1996_Air_Africa_crash en 1.0 5230043.0
0.0 Main_Page en 1.0 8533729872.0
0.0 Special:BlankPage en 1.0 942340592.0
0.0 Main_Page en 1.0 8533729872.0
0.0 Main_Page en 1.0 8533729872.0
0.0 Special:BlankPage en 1.0 942340592.0
0.0 Blackstar_(David_Bowie_album) en 1.0 16152081.0
0.0 Okto en 1.0 8725508.0
0.0 Cephalopod en 1.0 103351379.0
0.0 Main_Page en 1.0 8533729872.0
0.0 Special:BlankPage en 1.0 942340592.0
0.0 Steven_Avery en 1.0 25258095.0
0.0 Special:BlankPage en 1.0 942340592.0
0.0 Main_Page en 1.0 8533729872.0
0.0 Java_(programming_language) en 1.0 9701848.0
0.0 The_Abominable_Bride en 1.0 4860256.0
0.0 Special:UserLogin en 1.0 1047123130.0
0.0 Special:UserLogin en 1.0 1047123130.0
0.0 Main_Page en 1.0 8533729872.0
0.0 Special:BlankPage en 1.0 942340592.0
0.0 Main_Page en 1.0 8533729872.0
0.0 List_of_UFC_events en 1.0 49434449.0
0.0 Main_Page en 1.0 8533729872.0
0.0 William_Shakespeare en 1.0 45596284.0
0.0 Main_Page en 1.0 8533729872.0
0.0 Main_Page en 1.0 8533729872.0
0.0 Main_Page en 1.0 8533729872.0
0.0 File:Jeb_Bush_at_Southern_Republican_Leadership_Conference_May_2015_by_Vadon_02.jpg en 1.0 1419462.0
0.0 Benicio_del_Toro en 1.0 6158577.0
0.0 File:Evander_Holyfield_LA_2011.jpg en 1.0 175595651.0
0.0 Alexandra_Daddario en 1.0 2063357.0
0.0 File:Evander_Holyfield_LA_2011.jpg en 1.0 175595651.0
0.0 Martin_Freeman en 1.0 3007138.0
0.0 Main_Page en 1.0 8533729872.0
0.0 Main_Page en 1.0 8533729872.0
0.0 Main_Page en 1.0 8533729872.0
0.0 The_Green_Inferno_(film) en 1.0 1998763.0
0.0 George_H._W._Bush en 1.0 221410448.0
0.0 Nanites en 1.0 22739120.0
0.0 Special:UserLogin en 1.0 1047123130.0
0.0 Main_Page en 1.0 8533729872.0
0.0 Jennifer_Lawrence en 1.0 18843199.0
0.0 Main_Page en 1.0 8533729872.0
0.0 List_of_Naruto:_Shippuden_episodes en 1.0 24434944.0
0.0 Main_Page en 1.0 8533729872.0
0.0 Steven_Universe en 1.0 16801185.0
0.0 Main_Page en 1.0 8533729872.0
0.0 Main_Page en 1.0 8533729872.0
0.0 Main_Page en 1.0 8533729872.0
0.0 Main_Page en 1.0 8533729872.0
0.0 Internet en 1.0 25079592.0
0.0 Main_Page en 1.0 8533729872.0
0.0 Soviet_Union en 1.0 22677352.0
0.0 Main_Page en 1.0 8533729872.0
0.0 Joy_(film) en 1.0 13022270.0
0.0 Main_Page en 1.0 8533729872.0
0.0 Main_Page en 1.0 8533729872.0
0.0 Wikipedia en 1.0 114702369.0
0.0 File:Coldplay_Viva_La_Vida_Tour_in_Hannover_August_25th_2009.jpg en 1.0 1771616.0
0.0 Demat_account en 1.0 174061131.0
0.0 The_Rolling_Stones en 1.0 11262290.0
0.0 Main_Page en 1.0 8533729872.0
0.0 Main_Page en 1.0 8533729872.0
0.0 Star_Wars en 1.0 136598327.0
0.0 Main_Page en 1.0 8533729872.0
0.0 Special:Search en 1.0 108047570.0
0.0 Special:UserLogin en 1.0 1047123130.0
0.0 Special:UserLogin en 1.0 1047123130.0
0.0 Steven_Seagal en 1.0 5566599.0
0.0 Main_Page en 1.0 8533729872.0
0.0 Special:Search en 1.0 108047570.0
0.0 Special:BlankPage en 1.0 942340592.0
0.0 Main_Page en 1.0 8533729872.0
0.0 Demat_account en 1.0 174061131.0
0.0 Reservoir_Dogs en 1.0 3834876.0
0.0 Main_Page en 1.0 8533729872.0
0.0 Main_Page en 1.0 8533729872.0
0.0 Special:UserLogin en 1.0 1047123130.0
0.0 Special:UserLogin en 1.0 1047123130.0
0.0 Epiphany_(holiday) en 1.0 12228978.0
0.0 List_of_National_Basketball_Association_career_scoring_leaders en 1.0 5283941.0
0.0 Emma_Watson en 1.0 12003795.0
0.0 Main_Page en 1.0 8533729872.0
0.0 Billions_(TV_series) en 1.0 3057917.0
0.0 Brie_Larson en 1.0 3341035.0
0.0 Special:HideBanners en 1.0 0.0
0.0 Chichijima_incident en 1.0 156777745.0
0.0 The_Big_Bang_Theory_(season_9) en 1.0 19663753.0
0.0 Main_Page en 1.0 8533729872.0
0.0 Katrina_Kaif en 1.0 7453785.0
0.0 USB en 1.0 20051771.0
0.0 Main_Page en 1.0 8533729872.0
0.0 Deaths_in_2016 en 1.0 53894002.0
0.0 Special:UserLogin en 1.0 1047123130.0
0.0 Special:BlankPage en 1.0 942340592.0
0.0 Special:UserLogin en 1.0 1047123130.0
0.0 Quentin_Tarantino en 1.0 39212819.0
0.0 List_of_Running_Man_episodes en 1.0 73019342.0
0.0 Ellen_DeGeneres en 1.0 7869549.0
0.0 Main_Page en 1.0 8533729872.0
0.0 List_of_Arrow_episodes en 1.0 31274243.0
0.0 Special:BlankPage en 1.0 942340592.0
0.0 Main_Page en 1.0 8533729872.0
0.0 Main_Page en 1.0 8533729872.0
0.0 Main_Page en 1.0 8533729872.0
0.0 Main_Page en 1.0 8533729872.0
0.0 Main_Page en 1.0 8533729872.0
0.0 Main_Page en 1.0 8533729872.0
0.0 File:Pierre_Emerick_Aubameyang_2014.jpg en 1.0 3619476.0
0.0 Main_Page en 1.0 8533729872.0
0.0 Main_Page en 1.0 8533729872.0
0.0 Special:BlankPage en 1.0 942340592.0
0.0 Special:Search en 1.0 108047570.0
0.0 Main_Page en 1.0 8533729872.0
0.0 Suge_Knight en 1.0 6585338.0
0.0 Special:BlankPage en 1.0 942340592.0
0.0 2016_in_sports en 1.0 39052416.0
0.0 Main_Page en 1.0 8533729872.0
0.0 Main_Page en 1.0 8533729872.0
0.0 Special:UserLogin en 1.0 1047123130.0
0.0 Gross_domestic_product en 1.0 8842495.0
0.0 Special:BlankPage en 1.0 942340592.0
0.0 Main_Page en 1.0 8533729872.0
0.0 Steven_Avery en 1.0 25258095.0
0.0 File:Evander_Holyfield_LA_2011.jpg en 1.0 175595651.0
0.0 Special:BlankPage en 1.0 942340592.0
0.0 Main_Page en 1.0 8533729872.0
0.0 Special:BlankPage en 1.0 942340592.0
0.0 .rss en 1.0 49554765.0
0.0 Italy en 1.0 24559739.0
0.0 Special:UserLogin en 1.0 1047123130.0
0.0 File:Evander_Holyfield_LA_2011.jpg en 1.0 175595651.0
0.0 Special:UserLogin en 1.0 1047123130.0
0.0 Special:Search en 1.0 108047570.0
0.0 Main_Page en 1.0 8533729872.0
0.0 Main_Page en 1.0 8533729872.0
0.0 Quantico_(TV_series) en 1.0 20830380.0
0.0 The_Shannara_Chronicles en 1.0 24672996.0
0.0 Main_Page en 1.0 8533729872.0
0.0 Main_Page en 1.0 8533729872.0
0.0 Main_Page en 1.0 8533729872.0
0.0 Ricky_Gervais en 1.0 8423133.0
0.0 Empire_(2015_TV_series) en 1.0 4790553.0
0.0 Main_Page en 1.0 8533729872.0
0.0 Main_Page en 1.0 8533729872.0
0.0 Special:UserLogin en 1.0 1047123130.0
0.0 Main_Page en 1.0 8533729872.0
0.0 Main_Page en 1.0 8533729872.0
0.0 Main_Page en 1.0 8533729872.0
0.0 Main_Page en 1.0 8533729872.0
0.0 Main_Page en 1.0 8533729872.0
0.0 Main_Page en 1.0 8533729872.0
0.0 File:Mufti_Mohammad_Sayeed.jpg en 1.0 1849347.0
0.0 Main_Page en 1.0 8533729872.0
0.0 Main_Page en 1.0 8533729872.0
0.0 Main_Page en 1.0 8533729872.0
0.0 Kingsman:_The_Secret_Service en 1.0 6401853.0
0.0 JavaScript en 1.0 11285977.0
0.0 Harrison_Ford en 1.0 19964786.0
0.0 Main_Page en 1.0 8533729872.0
0.0 Main_Page en 1.0 8533729872.0
0.0 Main_Page en 1.0 8533729872.0
0.0 Main_Page en 1.0 8533729872.0
0.0 List_of_roads_and_highways en 1.0 7416616.0
0.0 Main_Page en 1.0 8533729872.0
0.0 Special:UserLogin en 1.0 1047123130.0
0.0 Kareem_Abdul-Jabbar en 1.0 10989712.0
0.0 Economy_of_India en 1.0 21232054.0
0.0 Main_Page en 1.0 8533729872.0
0.0 Main_Page en 1.0 8533729872.0
0.0 Special:UserLogin en 1.0 1047123130.0
0.0 Special:UserLogin en 1.0 1047123130.0
0.0 Java_(programming_language) en 1.0 9701848.0
0.0 Main_Page en 1.0 8533729872.0
0.0 Main_Page en 1.0 8533729872.0
0.0 Main_Page en 1.0 8533729872.0
0.0 Main_Page en 1.0 8533729872.0
0.0 Main_Page en 1.0 8533729872.0
0.0 Rachel_McAdams en 1.0 11455260.0
0.0 Ivana_Trump en 1.0 1925044.0
0.0 Main_Page en 1.0 8533729872.0
0.0 Sicario_(2015_film) en 1.0 12373936.0
0.0 Main_Page en 1.0 8533729872.0
0.0 Main_Page en 1.0 8533729872.0
0.0 Main_Page en 1.0 8533729872.0
0.0 Main_Page en 1.0 8533729872.0
0.0 Main_Page en 1.0 8533729872.0
0.0 Main_Page en 1.0 8533729872.0
0.0 Main_Page en 1.0 8533729872.0
0.0 Main_Page en 1.0 8533729872.0
0.0 Main_Page en 1.0 8533729872.0
0.0 Main_Page en 1.0 8533729872.0
0.0 Paris en 1.0 37312142.0
0.0 Main_Page en 1.0 8533729872.0
0.0 Special:BlankPage en 1.0 942340592.0
0.0 Main_Page en 1.0 8533729872.0
0.0 Muslim_conquest_of_sicily en 1.0 8829104.0
0.0 Maria_Ozawa en 1.0 7352826.0
0.0 Mom_(TV_series) en 1.0 3217600.0
0.0 Athens en 1.0 9680405.0
0.0 Special:BlankPage en 1.0 942340592.0
0.0 Main_Page en 1.0 8533729872.0
0.0 Computer en 1.0 15692594.0
0.0 Main_Page en 1.0 8533729872.0
0.0 Main_Page en 1.0 8533729872.0
0.0 Main_Page en 1.0 8533729872.0
0.0 Main_Page en 1.0 8533729872.0
0.0 Main_Page en 1.0 8533729872.0
0.0 Demat_account en 1.0 174061131.0
0.0 Chichijima_incident en 1.0 156777745.0
0.0 Main_Page en 1.0 8533729872.0
0.0 Java_(programming_language) en 1.0 9701848.0
0.0 Main_Page en 1.0 8533729872.0
0.0 Eternity_II_puzzle en 1.0 41705811.0
0.0 File:Aamir_Khan_March_2015.jpg en 1.0 4716747.0
0.0 Main_Page en 1.0 8533729872.0
0.0 Special:UserLogin en 1.0 1047123130.0
0.0 Main_Page en 1.0 8533729872.0
0.0 List_of_Steven_Universe_episodes en 1.0 46549233.0
0.0 Main_Page en 1.0 8533729872.0
0.0 Special:UserLogin en 1.0 1047123130.0
0.0 Main_Page en 1.0 8533729872.0
0.0 Special:BlankPage en 1.0 942340592.0
0.0 File:Donald_August_19_(cropped).jpg en 1.0 16354475.0
0.0 Main_Page en 1.0 8533729872.0
0.0 Conor_McGregor en 1.0 18563582.0
0.0 Volleyball_at_the_2016_Summer_Olympics_%E2%80%93_Women%27s_European_qualification en 1.0 1679633.0
0.0 Nigeria en 1.0 22349935.0
0.0 Special:UserLogin en 1.0 1047123130.0
0.0 Main_Page en 1.0 8533729872.0
0.0 Main_Page en 1.0 8533729872.0
0.0 Bejoy_Nambiar en 1.0 2674112.0
0.0 Main_Page en 1.0 8533729872.0
0.0 Jericho_(2016_TV_series) en 1.0 4895146.0
0.0 Main_Page en 1.0 8533729872.0
0.0 Daniel_Craig en 1.0 6649277.0
0.0 Main_Page en 1.0 8533729872.0
0.0 Main_Page en 1.0 8533729872.0
0.0 Main_Page en 1.0 8533729872.0
0.0 Main_Page en 1.0 8533729872.0
0.0 Demat_account en 1.0 174061131.0
0.0 Gillian_Anderson en 1.0 7871660.0
0.0 Main_Page en 1.0 8533729872.0
0.0 File:DK-Chel15_(19).jpg en 1.0 3532412.0
0.0 Ashraf_Pahlavi en 1.0 9246578.0
0.0 Kendrick_Lamar en 1.0 23697644.0
0.0 Steve_Carell en 1.0 6268522.0
0.0 Main_Page en 1.0 8533729872.0
0.0 Main_Page en 1.0 8533729872.0
0.0 Roman_Empire en 1.0 28066898.0
0.0 Elvis_Presley en 1.0 66604244.0
0.0 Main_Page en 1.0 8533729872.0
0.0 Main_Page en 1.0 8533729872.0
0.0 Special:BlankPage en 1.0 942340592.0
0.0 Middle_East en 1.0 5727648.0
0.0 File:Evander_Holyfield_LA_2011.jpg en 1.0 175595651.0
0.0 Insidious:_Chapter_3 en 1.0 2716499.0
0.0 Urvashi_Rautela en 1.0 3765932.0
0.0 Main_Page en 1.0 8533729872.0
0.0 File:Evander_Holyfield_LA_2011.jpg en 1.0 175595651.0
0.0 Main_Page en 1.0 8533729872.0
0.0 Major_League_Soccer en 1.0 17811770.0
0.0 Special:BlankPage en 1.0 942340592.0
0.0 Main_Page en 1.0 8533729872.0
0.0 Main_Page en 1.0 8533729872.0
0.0 Main_Page en 1.0 8533729872.0
0.0 Main_Page en 1.0 8533729872.0
0.0 Main_Page en 1.0 8533729872.0
0.0 Zara en 1.0 7592542.0
0.0 Hrithik_Roshan en 1.0 4765718.0
0.0 Shades_of_Blue_(TV_series) en 1.0 10930701.0
0.0 Special:BlankPage en 1.0 942340592.0
0.0 Charlie_Sheen en 1.0 7751074.0
0.0 The_Walking_Dead_(season_6) en 1.0 9378246.0
0.0 Eminem en 1.0 37783466.0
0.0 Demat_account en 1.0 174061131.0
0.0 Muslim_conquest_of_Sicily en 1.0 61546626.0
0.0 North_Korea en 1.0 118851507.0
0.0 Harrison_Ford en 1.0 19964786.0
0.0 Main_Page en 1.0 8533729872.0
0.0 Main_Page en 1.0 8533729872.0
0.0 File:Karch_Kiraly.jpg en 1.0 3844496.0
0.0 Special:UserLogin en 1.0 1047123130.0
0.0 File:Charlie_Hebdo_logo.svg en 1.0 12336839.0
0.0 Main_Page en 1.0 8533729872.0
0.0 Special:UserLogin en 1.0 1047123130.0
0.0 Main_Page en 1.0 8533729872.0
0.0 File:Western_Ukr.png en 1.0 1743456.0
0.0 Bren_light_machine_gun en 1.0 17434771.0
0.0 Special:Search en 1.0 108047570.0
0.0 Special:UserLogin en 1.0 1047123130.0
0.0 Philippe_Petit en 1.0 5105092.0
0.0 Main_Page en 1.0 8533729872.0
0.0 List_of_Steven_Universe_episodes en 1.0 46549233.0
0.0 Main_Page en 1.0 8533729872.0
0.0 Main_Page en 1.0 8533729872.0
0.0 Special:UserLogin en 1.0 1047123130.0
0.0 Fargo_(TV_series) en 1.0 6526657.0
0.0 Main_Page en 1.0 8533729872.0
0.0 Special:UserLogin en 1.0 1047123130.0
0.0 Korean_War en 1.0 35717816.0
0.0 Main_Page en 1.0 8533729872.0
0.0 Special:UserLogin en 1.0 1047123130.0
0.0 Main_Page en 1.0 8533729872.0
0.0 Luca_Maestri en 1.0 1354088.0
0.0 Main_Page en 1.0 8533729872.0
0.0 Main_Page en 1.0 8533729872.0
0.0 Main_Page en 1.0 8533729872.0
0.0 Main_Page en 1.0 8533729872.0
0.0 Main_Page en 1.0 8533729872.0
0.0 List_of_states_and_territories_of_the_United_States en 1.0 6790873.0
0.0 Star_Wars:_The_Force_Awakens en 1.0 360319666.0
0.0 Special:UserLogin en 1.0 1047123130.0
0.0 Main_Page en 1.0 8533729872.0
0.0 File:Evander_Holyfield_LA_2011.jpg en 1.0 175595651.0
0.0 Main_Page en 1.0 8533729872.0
0.0 Main_Page en 1.0 8533729872.0
0.0 Main_Page en 1.0 8533729872.0
0.0 The_Originals_(TV_series) en 1.0 3277612.0
0.0 Special:UserLogin en 1.0 1047123130.0
0.0 Australia en 1.0 52818274.0
0.0 Main_Page en 1.0 8533729872.0
0.0 Main_Page en 1.0 8533729872.0
0.0 Main_Page en 1.0 8533729872.0
0.0 Main_Page en 1.0 8533729872.0
0.0 Main_Page en 1.0 8533729872.0
0.0 Main_Page en 1.0 8533729872.0
0.0 Main_Page en 1.0 8533729872.0
0.0 Main_Page en 1.0 8533729872.0
0.0 Main_Page en 1.0 8533729872.0
0.0 Types_of_volcanic_eruptions en 1.0 4392704.0
0.0 Main_Page en 1.0 8533729872.0
0.0 Main_Page en 1.0 8533729872.0
0.0 Telangana en 1.0 5804247.0
0.0 Main_Page en 1.0 8533729872.0
0.0 Shades_of_Blue_(TV_series) en 1.0 10930701.0
0.0 Main_Page en 1.0 8533729872.0
0.0 Adam_Sandler en 1.0 5438162.0
0.0 Main_Page en 1.0 8533729872.0
0.0 Main_Page en 1.0 8533729872.0
0.0 Sia_Furler en 1.0 9786427.0
0.0 Main_Page en 1.0 8533729872.0
0.0 Main_Page en 1.0 8533729872.0
0.0 Drake_(rapper) en 1.0 12536249.0
0.0 Main_Page en 1.0 8533729872.0
0.0 Main_Page en 1.0 8533729872.0
0.0 Main_Page en 1.0 8533729872.0
0.0 Christmas en 1.0 32841331.0
0.0 Main_Page en 1.0 8533729872.0
0.0 Main_Page en 1.0 8533729872.0
0.0 Ottoman_Empire en 1.0 23678241.0
0.0 Main_Page en 1.0 8533729872.0
0.0 Demat_account en 1.0 174061131.0
0.0 United_States_presidential_election,_2016 en 1.0 33432714.0
0.0 Main_Page en 1.0 8533729872.0
0.0 Unit_731 en 1.0 36593723.0
0.0 Main_Page en 1.0 8533729872.0
0.0 Main_Page en 1.0 8533729872.0
0.0 Bundy_standoff en 1.0 10848976.0
0.0 Main_Page en 1.0 8533729872.0
0.0 Main_Page en 1.0 8533729872.0
0.0 Main_Page en 1.0 8533729872.0
0.0 Main_Page en 1.0 8533729872.0
0.0 IBM en 1.0 9702148.0
0.0 Special:BlankPage en 1.0 942340592.0
0.0 Chichijima_incident en 1.0 156777745.0
0.0 Main_Page en 1.0 8533729872.0
0.0 Main_Page en 1.0 8533729872.0
0.0 Mastani en 1.0 7194387.0
0.0 Star_Wars:_The_Force_Awakens en 1.0 360319666.0
0.0 Main_Page en 1.0 8533729872.0
0.0 Main_Page en 1.0 8533729872.0
0.0 Jenna_Dewan en 1.0 24310477.0
0.0 Main_Page en 1.0 8533729872.0
0.0 Special:UserLogin en 1.0 1047123130.0
0.0 Main_Page en 1.0 8533729872.0
0.0 Special:BlankPage en 1.0 942340592.0
0.0 Special:BlankPage en 1.0 942340592.0
0.0 Main_Page en 1.0 8533729872.0
0.0 List_of_Bollywood_films_of_2015 en 1.0 33642693.0
0.0 Cephalopod en 1.0 103351379.0
0.0 Main_Page en 1.0 8533729872.0
0.0 Chichijima_incident en 1.0 156777745.0
0.0 Boston en 1.0 17754153.0
0.0 Web_scraping en 1.0 28358326.0
0.0 Criminal_Minds en 1.0 5242261.0
0.0 Mastani en 1.0 7194387.0
0.0 Steven_Spielberg en 1.0 14828691.0
0.0 Coldplay en 1.0 11053634.0
0.0 Main_Page en 1.0 8533729872.0
0.0 Main_Page en 1.0 8533729872.0
0.0 Chichijima_incident en 1.0 156777745.0
0.0 Main_Page en 1.0 8533729872.0
0.0 Special:UserLogin en 1.0 1047123130.0
0.0 Main_Page en 1.0 8533729872.0
0.0 Web_scraping en 1.0 28358326.0
0.0 Special:Watchlist en 1.0 76035929.0
0.0 Main_Page en 1.0 8533729872.0
0.0 January_7 en 1.0 6118384.0
0.0 Special:UserLogin en 1.0 1047123130.0
0.0 James_Bond en 1.0 9198941.0
0.0 Main_Page en 1.0 8533729872.0
0.0 Vulva en 1.0 4059801.0
0.0 Main_Page en 1.0 8533729872.0
0.0 Main_Page en 1.0 8533729872.0
0.0 Philip_Seymour_Hoffman en 1.0 8483030.0
0.0 Main_Page en 1.0 8533729872.0
0.0 Special:BlankPage en 1.0 942340592.0
0.0 Main_Page en 1.0 8533729872.0
0.0 Main_Page en 1.0 8533729872.0
0.0 Category:Pages_with_reference_errors en 1.0 3393425.0
0.0 Web_scraping en 1.0 28358326.0
0.0 The_Forest_(2016_film) en 1.0 11222918.0
0.0 Special:UserLogin en 1.0 1047123130.0
0.0 Main_Page en 1.0 8533729872.0
0.0 Christopher_Catrambone en 1.0 1038556.0
0.0 Stanley_Tucci en 1.0 3292684.0
0.0 Special:UserLogin en 1.0 1047123130.0
0.0 Pterosaur en 1.0 32697340.0
0.0 List_of_Grey%27s_Anatomy_episodes en 1.0 13440856.0
0.0 Special:UserLogin en 1.0 1047123130.0
0.0 File:Donald_August_19_(cropped).jpg en 1.0 16354475.0
0.0 File:Chelsea_FC.svg en 1.0 4653436.0
0.0 Kevin_Hart en 1.0 5700208.0
0.0 Main_Page en 1.0 8533729872.0
0.0 List_of_films_based_on_Marvel_Comics en 1.0 3654241.0
0.0 Main_Page en 1.0 8533729872.0
0.0 Jennifer_Lopez en 1.0 37878608.0
0.0 Main_Page en 1.0 8533729872.0
0.0 Main_Page en 1.0 8533729872.0
0.0 Main_Page en 1.0 8533729872.0
0.0 Main_Page en 1.0 8533729872.0
0.0 Main_Page en 1.0 8533729872.0
0.0 Lip_Sync_Battle en 1.0 17720380.0
0.0 Main_Page en 1.0 8533729872.0
0.0 Main_Page en 1.0 8533729872.0
0.0 Main_Page en 1.0 8533729872.0
0.0 How_to_Get_Away_with_Murder en 1.0 8169910.0
0.0 List_of_most_popular_websites en 1.0 1670122.0
0.0 Main_Page en 1.0 8533729872.0
0.0 Kobe_Bryant en 1.0 36677420.0
0.0 Main_Page en 1.0 8533729872.0
0.0 Roger_Federer en 1.0 14535980.0
0.0 Noragami en 1.0 2029428.0
0.0 George_H._W._Bush en 1.0 221410448.0
0.0 Special:BlankPage en 1.0 942340592.0
0.0 Main_Page en 1.0 8533729872.0
0.0 Joy_(film) en 1.0 13022270.0
0.0 Sylvester_Stallone en 1.0 15796968.0
0.0 Main_Page en 1.0 8533729872.0
0.0 Special:UserLogin en 1.0 1047123130.0
0.0 Main_Page en 1.0 8533729872.0
0.0 Main_Page en 1.0 8533729872.0
0.0 Special:Search en 1.0 108047570.0
0.0 Special:UserLogin en 1.0 1047123130.0
0.0 Main_Page en 1.0 8533729872.0
0.0 Main_Page en 1.0 8533729872.0
0.0 Main_Page en 1.0 8533729872.0
0.0 Main_Page en 1.0 8533729872.0
0.0 Chichijima_incident en 1.0 156777745.0
0.0 Java_(programming_language) en 1.0 9701848.0
0.0 Main_Page en 1.0 8533729872.0
0.0 Help:Category en 1.0 5013574.0
0.0 Jermaine_Jenas en 1.0 3723819.0
0.0 Special:BlankPage en 1.0 942340592.0
0.0 Main_Page en 1.0 8533729872.0
0.0 Illuminati en 1.0 5867923.0
0.0 Main_Page en 1.0 8533729872.0
0.0 Demat_account en 1.0 174061131.0
0.0 List_of_Bollywood_films_of_2016 en 1.0 28421096.0
0.0 Main_Page en 1.0 8533729872.0
0.0 Web_scraping en 1.0 28358326.0
0.0 File:Evander_Holyfield_LA_2011.jpg en 1.0 175595651.0
0.0 Main_Page en 1.0 8533729872.0
0.0 Main_Page en 1.0 8533729872.0
0.0 Main_Page en 1.0 8533729872.0
0.0 Jessica_Chastain en 1.0 5447588.0
0.0 Main_Page en 1.0 8533729872.0
0.0 Special:Search en 1.0 108047570.0
0.0 Main_Page en 1.0 8533729872.0
0.0 Main_Page en 1.0 8533729872.0
0.0 Special:BlankPage en 1.0 942340592.0
0.0 Christian_Bale en 1.0 10298614.0
0.0 List_of_highest-grossing_films en 1.0 167724226.0
0.0 Special:UserLogin en 1.0 1047123130.0
0.0 Chichijima_incident en 1.0 156777745.0
0.0 Farhan_Akhtar en 1.0 6419865.0
0.0 Main_Page en 1.0 8533729872.0
0.0 Main_Page en 1.0 8533729872.0
0.0 Grey%27s_Anatomy en 1.0 27887407.0
0.0 George_W._Bush en 1.0 78255706.0
0.0 Main_Page en 1.0 8533729872.0
0.0 Main_Page en 1.0 8533729872.0
0.0 Game_of_Thrones en 1.0 78026053.0
0.0 Jallikattu en 1.0 9535280.0
0.0 William_Gibson en 1.0 280778305.0
0.0 Main_Page en 1.0 8533729872.0
0.0 Main_Page en 1.0 8533729872.0
0.0 Yemen en 1.0 23764399.0
0.0 The_Jungle_Book_(2016_film) en 1.0 2321461.0
0.0 Vietnam_War en 1.0 60048674.0
0.0 Main_Page en 1.0 8533729872.0
0.0 List_of_social_networking_websites en 1.0 12333929.0
0.0 Main_Page en 1.0 8533729872.0
0.0 File:Pennsylvania_State_University_seal.svg en 1.0 1322584.0
0.0 Special:UserLogin en 1.0 1047123130.0
0.0 Main_Page en 1.0 8533729872.0
0.0 Srinivasa_Ramanujan en 1.0 7378848.0
0.0 Main_Page en 1.0 8533729872.0
0.0 Franklin_D._Roosevelt en 1.0 42624556.0
0.0 Main_Page en 1.0 8533729872.0
0.0 Philippines en 1.0 77378676.0
0.0 Main_Page en 1.0 8533729872.0
0.0 Napoleon en 1.0 26579561.0
0.0 Pat_Harrington,_Jr. en 1.0 7221610.0
0.0 Main_Page en 1.0 8533729872.0
0.0 Main_Page en 1.0 8533729872.0
0.0 Main_Page en 1.0 8533729872.0
0.0 File:Nataliecole2007.jpg en 1.0 2426340.0
0.0 Boku_Dake_ga_Inai_Machi en 1.0 9358161.0
0.0 List_of_Naruto:_Shippuden_episodes en 1.0 24434944.0
0.0 Main_Page en 1.0 8533729872.0
0.0 Special:BlankPage en 1.0 942340592.0
0.0 Special:BlankPage en 1.0 942340592.0
0.0 Main_Page en 1.0 8533729872.0
0.0 Main_Page en 1.0 8533729872.0
0.0 Special:UserLogin en 1.0 1047123130.0
0.0 Jericho_(2016_TV_series) en 1.0 4895146.0
0.0 Chichijima_incident en 1.0 156777745.0
0.0 Special:UserLogin en 1.0 1047123130.0
0.0 Special:BlankPage en 1.0 942340592.0
0.0 Special:UserLogin en 1.0 1047123130.0
0.0 Special:BlankPage en 1.0 942340592.0
0.0 Main_Page en 1.0 8533729872.0
0.0 Special:UserLogin en 1.0 1047123130.0
0.0 Main_Page en 1.0 8533729872.0
0.0 Main_Page en 1.0 8533729872.0
0.0 Enterprise_resource_planning en 1.0 5478442.0
0.0 Halsey_(singer) en 1.0 2269887.0
0.0 Main_Page en 1.0 8533729872.0
0.0 Main_Page en 1.0 8533729872.0
0.0 Main_Page en 1.0 8533729872.0
0.0 Main_Page en 1.0 8533729872.0
0.0 Main_Page en 1.0 8533729872.0
0.0 Main_Page en 1.0 8533729872.0
0.0 Google_Search en 1.0 9747438.0
0.0 Main_Page en 1.0 8533729872.0
0.0 Korea_Republic en 1.0 110340918.0
0.0 Main_Page en 1.0 8533729872.0
0.0 KRBE en 1.0 4161554.0
0.0 Special:UserLogin en 1.0 1047123130.0
0.0 Main_Page en 1.0 8533729872.0
0.0 Paracel_Islands en 1.0 13861283.0
0.0 Special:UserLogin en 1.0 1047123130.0
0.0 Samantha_Ruth_Prabhu en 1.0 4655827.0
0.0 Steven_Avery en 1.0 25258095.0
0.0 Main_Page en 1.0 8533729872.0
0.0 Main_Page en 1.0 8533729872.0
0.0 Main_Page en 1.0 8533729872.0
0.0 Main_Page en 1.0 8533729872.0
0.0 Special:BlankPage en 1.0 942340592.0
0.0 Corrupted_Blood_incident en 1.0 20892406.0
0.0 Special:UserLogin en 1.0 1047123130.0
0.0 Main_Page en 1.0 8533729872.0
0.0 Java_(programming_language) en 1.0 9701848.0
0.0 Main_Page en 1.0 8533729872.0
0.0 Special:BlankPage en 1.0 942340592.0
0.0 Ddd en 1.0 56799834.0
0.0 Main_Page en 1.0 8533729872.0
0.0 Turkey en 1.0 35508376.0
0.0 Main_Page en 1.0 8533729872.0
0.0 Jackie_Chan_filmography en 1.0 3021900.0
0.0 Main_Page en 1.0 8533729872.0
0.0 Special:Search en 1.0 108047570.0
0.0 Eternity_II_puzzle en 1.0 41705811.0
0.0 Main_Page en 1.0 8533729872.0
0.0 Special:BlankPage en 1.0 942340592.0
0.0 Wazir_(film) en 1.0 28376882.0
0.0 Pretty_Little_Liars_(TV_series) en 1.0 8535740.0
0.0 Main_Page en 1.0 8533729872.0
0.0 Main_Page en 1.0 8533729872.0
0.0 Special:UserLogin en 1.0 1047123130.0
0.0 Pirates_of_the_Caribbean_(film_series) en 1.0 4867814.0
0.0 Main_Page en 1.0 8533729872.0
0.0 Starship_Troopers_(film) en 1.0 3965564.0
0.0 Demat_account en 1.0 174061131.0
0.0 Earth en 1.0 18196214.0
0.0 Main_Page en 1.0 8533729872.0
0.0 Main_Page en 1.0 8533729872.0
0.0 Special:UserLogin en 1.0 1047123130.0
0.0 Heart en 1.0 9395026.0
0.0 Melissa_Benoist en 1.0 1858660.0
0.0 Main_Page en 1.0 8533729872.0
0.0 File:Herman_Melville.jpg en 1.0 5173080.0
0.0 Sicario_(2015_film) en 1.0 12373936.0
0.0 Main_Page en 1.0 8533729872.0
0.0 Main_Page en 1.0 8533729872.0
0.0 Main_Page en 1.0 8533729872.0
0.0 Main_Page en 1.0 8533729872.0
0.0 Special:BlankPage en 1.0 942340592.0
0.0 List_of_The_Walking_Dead_episodes en 1.0 6801087.0
0.0 Main_Page en 1.0 8533729872.0
0.0 Main_Page en 1.0 8533729872.0
0.0 Main_Page en 1.0 8533729872.0
0.0 Main_Page en 1.0 8533729872.0
0.0 Web_scraping en 1.0 28358326.0
0.0 FIFA_Ballon_d%27Or en 1.0 2155738.0
0.0 Main_Page en 1.0 8533729872.0
0.0 Main_Page en 1.0 8533729872.0
0.0 File:Evander_Holyfield_LA_2011.jpg en 1.0 175595651.0
0.0 David_Bowie en 1.0 103675600.0
0.0 Main_Page en 1.0 8533729872.0
0.0 Main_Page en 1.0 8533729872.0
0.0 Special:Search en 1.0 108047570.0
0.0 Special:UserLogin en 1.0 1047123130.0
0.0 Special:BlankPage en 1.0 942340592.0
0.0 Main_Page en 1.0 8533729872.0
0.0 Main_Page en 1.0 8533729872.0
0.0 Main_Page en 1.0 8533729872.0
0.0 Stanford_University en 1.0 423477444.0
0.0 Main_Page en 1.0 8533729872.0
0.0 Joseph_Gordon-Levitt en 1.0 4230080.0
0.0 Much_Ado_About_Nothing en 1.0 40783320.0
0.0 Main_Page en 1.0 8533729872.0
0.0 List_of_The_Big_Bang_Theory_episodes en 1.0 46964178.0
0.0 Solar_energy en 1.0 25194579.0
0.0 Special:UserLogin en 1.0 1047123130.0
0.0 Main_Page en 1.0 8533729872.0
0.0 Main_Page en 1.0 8533729872.0
0.0 Heroes_(TV_series) en 1.0 8431904.0
0.0 Main_Page en 1.0 8533729872.0
0.0 Main_Page en 1.0 8533729872.0
0.0 File:ClintEastwoodSept10TIFF.jpg en 1.0 1868013.0
0.0 Main_Page en 1.0 8533729872.0
0.0 Special:UserLogin en 1.0 1047123130.0
0.0 Mohenjo_Daro_(film) en 1.0 1944878.0
0.0 Main_Page en 1.0 8533729872.0
0.0 Main_Page en 1.0 8533729872.0
0.0 Special:Search en 1.0 108047570.0
0.0 Main_Page en 1.0 8533729872.0
0.0 Special:BlankPage en 1.0 942340592.0
0.0 Main_Page en 1.0 8533729872.0
0.0 Main_Page en 1.0 8533729872.0
0.0 Main_Page en 1.0 8533729872.0
0.0 Main_Page en 1.0 8533729872.0
0.0 Main_Page en 1.0 8533729872.0
0.0 Main_Page en 1.0 8533729872.0
0.0 Main_Page en 1.0 8533729872.0
0.0 Steve_Jobs_(2015_film) en 1.0 8534146.0
0.0 Thermonuclear_weapon en 1.0 70269413.0
0.0 Main_Page en 1.0 8533729872.0
0.0 Main_Page en 1.0 8533729872.0
0.0 Main_Page en 1.0 8533729872.0
0.0 Main_Page en 1.0 8533729872.0
0.0 Main_Page en 1.0 8533729872.0
0.0 Main_Page en 1.0 8533729872.0
0.0 Marvin_Gaye en 1.0 7603850.0
0.0 Yip_Man en 1.0 2852620.0
0.0 Main_Page en 1.0 8533729872.0
0.0 Special:UserLogin en 1.0 1047123130.0
0.0 Main_Page en 1.0 8533729872.0
0.0 Special:UserLogin en 1.0 1047123130.0
0.0 Main_Page en 1.0 8533729872.0
0.0 Main_Page en 1.0 8533729872.0
0.0 Special:BlankPage en 1.0 942340592.0
0.0 Special:BlankPage en 1.0 942340592.0
0.0 Main_Page en 1.0 8533729872.0
0.0 Main_Page en 1.0 8533729872.0
0.0 Historiography_of_science en 1.0 10124868.0
0.0 Special:UserLogin en 1.0 1047123130.0
0.0 Main_Page en 1.0 8533729872.0
0.0 Main_Page en 1.0 8533729872.0
0.0 Main_Page en 1.0 8533729872.0
0.0 Main_Page en 1.0 8533729872.0
0.0 Java_(programming_language) en 1.0 9701848.0
0.0 File:Evander_Holyfield_LA_2011.jpg en 1.0 175595651.0
0.0 File:Ai_Weiwei.jpg en 1.0 1296008.0
0.0 Main_Page en 1.0 8533729872.0
0.0 Alyssa_Milano en 1.0 6052997.0
0.0 Special:BlankPage en 1.0 942340592.0
0.0 Special:BlankPage en 1.0 942340592.0
0.0 Chernobyl_disaster en 1.0 17797128.0
0.0 Main_Page en 1.0 8533729872.0
0.0 Main_Page en 1.0 8533729872.0
0.0 September_11_attacks en 1.0 24264019.0
0.0 Main_Page en 1.0 8533729872.0
0.0 Main_Page en 1.0 8533729872.0
0.0 Gigi_Hadid en 1.0 13273495.0
0.0 Main_Page en 1.0 8533729872.0
0.0 Main_Page en 1.0 8533729872.0
0.0 Main_Page en 1.0 8533729872.0
0.0 Template:Syrian_Civil_War_detailed_map en 1.0 94140064.0
0.0 Ghostbusters_(2016_film) en 1.0 4904560.0
0.0 Chichijima_incident en 1.0 156777745.0
0.0 Demat_account en 1.0 174061131.0
0.0 Main_Page en 1.0 8533729872.0
0.0 Main_Page en 1.0 8533729872.0
0.0 Main_Page en 1.0 8533729872.0
0.0 Making_a_Murderer en 1.0 33144160.0
0.0 Main_Page en 1.0 8533729872.0
0.0 Special:UserLogin en 1.0 1047123130.0
0.0 Conan_O%27Brien en 1.0 16773689.0
0.0 Star_Wars en 1.0 136598327.0
0.0 Main_Page en 1.0 8533729872.0
0.0 Main_Page en 1.0 8533729872.0
0.0 Main_Page en 1.0 8533729872.0
0.0 January_8 en 1.0 50914427.0
0.0 Main_Page en 1.0 8533729872.0
0.0 List_of_Steven_Universe_episodes en 1.0 46549233.0
0.0 Main_Page en 1.0 8533729872.0
0.0 Jenna_Dewan en 1.0 24310477.0
0.0 File:Richmond_lacker.jpg en 1.0 830085.0
0.0 Main_Page en 1.0 8533729872.0
0.0 Priscilla_Presley en 1.0 3978773.0
0.0 Matthew_Perry en 1.0 3493791.0
0.0 Special:UserLogin en 1.0 1047123130.0
0.0 Java_(programming_language) en 1.0 9701848.0
0.0 Prince_William,_Duke_of_Cambridge en 1.0 11263651.0
0.0 Main_Page en 1.0 8533729872.0
0.0 Special:Search en 1.0 108047570.0
0.0 Main_Page en 1.0 8533729872.0
0.0 The_X-Files_(miniseries) en 1.0 4463116.0
0.0 Main_Page en 1.0 8533729872.0
0.0 George_H._W._Bush_vomiting_incident en 1.0 14363364.0
0.0 Patrick_Wilson_(American_actor) en 1.0 2787779.0
0.0 Channing_Tatum en 1.0 21674983.0
0.0 Main_Page en 1.0 8533729872.0
0.0 Main_Page en 1.0 8533729872.0
0.0 Main_Page en 1.0 8533729872.0
0.0 Veerappan en 1.0 4504482.0
0.0 Eternity_II_puzzle en 1.0 41705811.0
0.0 Main_Page en 1.0 8533729872.0
0.0 Main_Page en 1.0 8533729872.0
0.0 Main_Page en 1.0 8533729872.0
0.0 Main_Page en 1.0 8533729872.0
0.0 Hoverboard en 1.0 2457600.0
0.0 Joy_Mangano en 1.0 7558489.0
0.0 Main_Page en 1.0 8533729872.0
0.0 Main_Page en 1.0 8533729872.0
0.0 index.html en 1.0 14152311.0
0.0 Chikki_Panday en 1.0 4896357.0
0.0 Main_Page en 1.0 8533729872.0
0.0 Special:BlankPage en 1.0 942340592.0
0.0 Main_Page en 1.0 8533729872.0
0.0 Kung_Fu_Panda_3 en 1.0 4285309.0
0.0 Main_Page en 1.0 8533729872.0
0.0 Ddd en 1.0 56799834.0
0.0 Web_scraping en 1.0 28358326.0
0.0 Main_Page en 1.0 8533729872.0
0.0 Main_Page en 1.0 8533729872.0
0.0 Main_Page en 1.0 8533729872.0
0.0 Special:BlankPage en 1.0 942340592.0
0.0 Main_Page en 1.0 8533729872.0
0.0 Main_Page en 1.0 8533729872.0
0.0 Chichijima_incident en 1.0 156777745.0
0.0 Main_Page en 1.0 8533729872.0
0.0 Idris_Elba en 1.0 5836486.0
0.0 Main_Page en 1.0 8533729872.0
0.0 Special:UserLogin en 1.0 1047123130.0
0.0 Making_a_Murderer en 1.0 33144160.0
0.0 Main_Page en 1.0 8533729872.0
0.0 Aamir_Khan en 1.0 9693732.0
0.0 Inside_Out_(2015_film) en 1.0 10703102.0
0.0 Special:UserLogin en 1.0 1047123130.0
0.0 Demat_account en 1.0 174061131.0
0.0 Chichijima_incident en 1.0 156777745.0
0.0 Palpatine en 1.0 7979137.0
0.0 Chichijima_incident en 1.0 156777745.0
0.0 Kate_Winslet en 1.0 10910872.0
0.0 Special:BlankPage en 1.0 942340592.0
0.0 1989_kidnapping_of_Rubaiya_Sayeed en 1.0 2266213.0
0.0 Main_Page en 1.0 8533729872.0
0.0 Main_Page en 1.0 8533729872.0
0.0 Main_Page en 1.0 8533729872.0
0.0 Main_Page en 1.0 8533729872.0
0.0 Main_Page en 1.0 8533729872.0
0.0 Sian_Blake en 1.0 12936061.0
0.0 Karan_Singh_Grover en 1.0 3502133.0
0.0 Main_Page en 1.0 8533729872.0
0.0 Special:BlankPage en 1.0 942340592.0
0.0 Once_Upon_a_Time_(TV_series) en 1.0 13985882.0
0.0 Main_Page en 1.0 8533729872.0
0.0 Main_Page en 1.0 8533729872.0
0.0 Main_Page en 1.0 8533729872.0
0.0 Computer_network en 1.0 11310085.0
0.0 Pollution en 1.0 9428142.0
0.0 Cephalopod en 1.0 103351379.0
0.0 Special:BlankPage en 1.0 942340592.0
0.0 Main_Page en 1.0 8533729872.0
0.0 .rss en 1.0 49554765.0
0.0 Norn9 en 1.0 4413767.0
0.0 Thermonuclear_weapon en 1.0 70269413.0
0.0 Main_Page en 1.0 8533729872.0
0.0 Main_Page en 1.0 8533729872.0
0.0 Texas en 1.0 34176752.0
0.0 North_Korea en 1.0 118851507.0
0.0 The_Game_(rapper) en 1.0 6091628.0
0.0 Main_Page en 1.0 8533729872.0
0.0 Jennifer_Jason_Leigh en 1.0 24934592.0
0.0 Main_Page en 1.0 8533729872.0
0.0 Main_Page en 1.0 8533729872.0
0.0 Main_Page en 1.0 8533729872.0
0.0 Main_Page en 1.0 8533729872.0
0.0 Portal:Current_events en 1.0 77636666.0
0.0 Special:Search en 1.0 108047570.0
0.0 Main_Page en 1.0 8533729872.0
0.0 Special:Search en 1.0 108047570.0
0.0 Special:UserLogin en 1.0 1047123130.0
0.0 Main_Page en 1.0 8533729872.0
0.0 Special:UserLogin en 1.0 1047123130.0
0.0 Main_Page en 1.0 8533729872.0
0.0 Main_Page en 1.0 8533729872.0
0.0 Amy_Jackson en 1.0 2437466.0
0.0 Main_Page en 1.0 8533729872.0
0.0 Zodiac_Killer en 1.0 4284949.0
0.0 Main_Page en 1.0 8533729872.0
0.0 Special:BlankPage en 1.0 942340592.0
0.0 Main_Page en 1.0 8533729872.0
0.0 Main_Page en 1.0 8533729872.0
0.0 Web_scraping en 1.0 28358326.0
0.0 Main_Page en 1.0 8533729872.0
0.0 Main_Page en 1.0 8533729872.0
0.0 Main_Page en 1.0 8533729872.0
0.0 Main_Page en 1.0 8533729872.0
0.0 Special:UserLogin en 1.0 1047123130.0
0.0 Colobanthus_quitensis en 1.0 1102384.0
0.0 Main_Page en 1.0 8533729872.0
0.0 Main_Page en 1.0 8533729872.0
0.0 Main_Page en 1.0 8533729872.0
0.0 Jennifer_Aniston en 1.0 9443854.0
0.0 Main_Page en 1.0 8533729872.0
0.0 Main_Page en 1.0 8533729872.0
0.0 Main_Page en 1.0 8533729872.0
0.0 Main_Page en 1.0 8533729872.0
0.0 Special:Search en 1.0 108047570.0
0.0 Main_Page en 1.0 8533729872.0
0.0 Special:Search en 1.0 108047570.0
0.0 Main_Page en 1.0 8533729872.0
0.0 Special:Search en 1.0 108047570.0
0.0 Special:UserLogin en 1.0 1047123130.0
0.0 Pope_Innocent_III en 1.0 12295805.0
0.0 Main_Page en 1.0 8533729872.0
0.0 %C3%96tzi en 1.0 17591467.0
0.0 Main_Page en 1.0 8533729872.0
0.0 Main_Page en 1.0 8533729872.0
0.0 Main_Page en 1.0 8533729872.0
0.0 Main_Page en 1.0 8533729872.0
0.0 Special:UserLogin en 1.0 1047123130.0
0.0 Main_Page en 1.0 8533729872.0
0.0 Main_Page en 1.0 8533729872.0
0.0 Main_Page en 1.0 8533729872.0
0.0 Special:Search en 1.0 108047570.0
0.0 Main_Page en 1.0 8533729872.0
0.0 File:Evander_Holyfield_LA_2011.jpg en 1.0 175595651.0
0.0 Main_Page en 1.0 8533729872.0
0.0 The_Hunger_Games en 1.0 4454789.0
0.0 Main_Page en 1.0 8533729872.0
0.0 Restriction_of_Hazardous_Substances_Directive en 1.0 18381559.0
0.0 Demat_account en 1.0 174061131.0
0.0 Special:BlankPage en 1.0 942340592.0
0.0 Main_Page en 1.0 8533729872.0
0.0 Chichijima_incident en 1.0 156777745.0
0.0 Wazir_(film) en 1.0 28376882.0
0.0 Main_Page en 1.0 8533729872.0
0.0 Main_Page en 1.0 8533729872.0
0.0 Bahrain en 1.0 22184249.0
0.0 Spider_silk en 1.0 28220925.0
0.0 Main_Page en 1.0 8533729872.0
0.0 Main_Page en 1.0 8533729872.0
0.0 Main_Page en 1.0 8533729872.0
0.0 Main_Page en 1.0 8533729872.0
0.0 Special:BlankPage en 1.0 942340592.0
0.0 Main_Page en 1.0 8533729872.0
0.0 HTML en 1.0 11513135.0
0.0 Main_Page en 1.0 8533729872.0
0.0 Main_Page en 1.0 8533729872.0
0.0 Legends_of_Tomorrow en 1.0 9241519.0
0.0 Main_Page en 1.0 8533729872.0
0.0 John_Boyega en 1.0 17504336.0
0.0 Special:BlankPage en 1.0 942340592.0
0.0 Muslim_conquest_of_sicily en 1.0 8829104.0
0.0 Main_Page en 1.0 8533729872.0
0.0 Harry_Potter en 1.0 18581352.0
0.0 Main_Page en 1.0 8533729872.0
0.0 Main_Page en 1.0 8533729872.0
0.0 Main_Page en 1.0 8533729872.0
0.0 Main_Page en 1.0 8533729872.0
0.0 Main_Page en 1.0 8533729872.0
0.0 Angel_from_Hell en 1.0 7619050.0
0.0 Edward_Snowden en 1.0 30875890.0
0.0 Demat_account en 1.0 174061131.0
0.0 Wazir_(film) en 1.0 28376882.0
0.0 Main_Page en 1.0 8533729872.0
0.0 Main_Page en 1.0 8533729872.0
0.0 UFC_Fight_Night:_Dillashaw_vs._Cruz en 1.0 5453283.0
0.0 Main_Page en 1.0 8533729872.0
0.0 Special:UserLogin en 1.0 1047123130.0
0.0 Axl_Rose en 1.0 6505057.0
0.0 Main_Page en 1.0 8533729872.0
0.0 Portal:Current_events en 1.0 77636666.0
0.0 Special:BlankPage en 1.0 942340592.0
0.0 Special:BlankPage en 1.0 942340592.0
0.0 Demat_account en 1.0 174061131.0
0.0 12-hour_clock en 1.0 2395436.0
0.0 Donald_Trump en 1.0 115639487.0
0.0 Al_Pacino en 1.0 6493820.0
0.0 Special:BlankPage en 1.0 942340592.0
0.0 Demat_account en 1.0 174061131.0
0.0 Batman en 1.0 13520341.0
0.0 Java_(programming_language) en 1.0 9701848.0
0.0 Main_Page en 1.0 8533729872.0
0.0 Indian_elephant en 1.0 16392746.0
0.0 Special:UserLogin en 1.0 1047123130.0
0.0 Frank_Sinatra en 1.0 26741399.0
0.0 Main_Page en 1.0 8533729872.0
0.0 Firehouse,_Hook_%26_Ladder_Company_8 en 1.0 6562070.0
0.0 Main_Page en 1.0 8533729872.0
0.0 Main_Page en 1.0 8533729872.0
0.0 Main_Page en 1.0 8533729872.0
0.0 Main_Page en 1.0 8533729872.0
0.0 Main_Page en 1.0 8533729872.0
0.0 Main_Page en 1.0 8533729872.0
0.0 Lisa_Ann en 1.0 5575340.0
0.0 List_of_Steven_Universe_episodes en 1.0 46549233.0
0.0 Main_Page en 1.0 8533729872.0
0.0 Main_Page en 1.0 8533729872.0
0.0 Main_Page en 1.0 8533729872.0
0.0 Main_Page en 1.0 8533729872.0
0.0 Web_scraping en 1.0 28358326.0
0.0 Main_Page en 1.0 8533729872.0
0.0 Special:UserLogin en 1.0 1047123130.0
0.0 UFC_Fight_Night_84 en 1.0 1953250.0
0.0 Dr._Dre en 1.0 21031601.0
0.0 Main_Page en 1.0 8533729872.0
0.0 Chichijima_incident en 1.0 156777745.0
0.0 Main_Page en 1.0 8533729872.0
0.0 Special:UserLogin en 1.0 1047123130.0
0.0 Hailee_Steinfeld en 1.0 4414289.0
0.0 Main_Page en 1.0 8533729872.0
0.0 Heroes_Reborn_(miniseries) en 1.0 20334182.0
0.0 Special:RecentChanges en 1.0 21739539.0
0.0 Main_Page en 1.0 8533729872.0
0.0 Main_Page en 1.0 8533729872.0
0.0 Aokigahara en 1.0 10308064.0
0.0 Special:BlankPage en 1.0 942340592.0
0.0 404_error en 1.0 3562020.0
0.0 Much_Ado_About_Nothing en 1.0 40783320.0
0.0 File:Evander_Holyfield_LA_2011.jpg en 1.0 175595651.0
0.0 Special:UserLogin en 1.0 1047123130.0
0.0 Main_Page en 1.0 8533729872.0
0.0 Main_Page en 1.0 8533729872.0
0.0 Anne_Hathaway en 1.0 14470420.0
0.0 Bryce_Alford en 1.0 2861910.0
0.0 Special:BlankPage en 1.0 942340592.0
0.0 Room_(2015_film) en 1.0 4088676.0
0.0 Main_Page en 1.0 8533729872.0
0.0 Main_Page en 1.0 8533729872.0
0.0 Main_Page en 1.0 8533729872.0
0.0 Modern_Family_(season_7) en 1.0 3543829.0
0.0 Candace_Cameron_Bure en 1.0 3461310.0
0.0 Star_Wars_sequel_trilogy en 1.0 14648840.0
0.0 Main_Page en 1.0 8533729872.0
0.0 Main_Page en 1.0 8533729872.0
0.0 Zootopia en 1.0 3527790.0
0.0 Main_Page en 1.0 8533729872.0
0.0 Main_Page en 1.0 8533729872.0
0.0 Fracture_(2007_film) en 1.0 1967620.0
0.0 Ariana_Grande en 1.0 17179350.0
0.0 Main_Page en 1.0 8533729872.0
0.0 China_Netcom en 1.0 16311194.0
0.0 Harry_Connick,_Jr. en 1.0 4149371.0
0.0 X-Men_(film_series) en 1.0 7480260.0
0.0 Main_Page en 1.0 8533729872.0
0.0 Main_Page en 1.0 8533729872.0
0.0 Main_Page en 1.0 8533729872.0
0.0 Main_Page en 1.0 8533729872.0
0.0 Main_Page en 1.0 8533729872.0
0.0 Kolkata en 1.0 19185140.0
0.0 Kim_Jong-un en 1.0 55847144.0
0.0 Special:Search en 1.0 108047570.0
0.0 Huaorani_people en 1.0 7148572.0
0.0 Ash_vs_Evil_Dead en 1.0 4127431.0
0.0 Special:BlankPage en 1.0 942340592.0
0.0 Robert_De_Niro en 1.0 11354019.0
0.0 Main_Page en 1.0 8533729872.0
0.0 Main_Page en 1.0 8533729872.0
0.0 Main_Page en 1.0 8533729872.0
0.0 Main_Page en 1.0 8533729872.0
0.0 Main_Page en 1.0 8533729872.0
0.0 Main_Page en 1.0 8533729872.0
0.0 Oh_My_Venus en 1.0 5839572.0
0.0 Main_Page en 1.0 8533729872.0
0.0 Main_Page en 1.0 8533729872.0
0.0 Pierre-Emerick_Aubameyang en 1.0 17067974.0
0.0 Main_Page en 1.0 8533729872.0
0.0 Main_Page en 1.0 8533729872.0
0.0 List_of_Steven_Universe_episodes en 1.0 46549233.0
0.0 My_Bebe_Love en 1.0 3051750.0
0.0 Special:BlankPage en 1.0 942340592.0
0.0 Special:BlankPage en 1.0 942340592.0
0.0 Main_Page en 1.0 8533729872.0
0.0 Main_Page en 1.0 8533729872.0
0.0 Special:UserLogin en 1.0 1047123130.0
0.0 Main_Page en 1.0 8533729872.0
0.0 2016_in_film en 1.0 37397840.0
0.0 Gordon_Gollob en 1.0 55856045.0
0.0 Special:UserLogin en 1.0 1047123130.0
0.0 Main_Page en 1.0 8533729872.0
0.0 Craig_David en 1.0 4552174.0
0.0 Volleyball_at_the_2016_Summer_Olympics_%E2%80%93_Men%27s_European_qualification en 1.0 2836375.0
0.0 Main_Page en 1.0 8533729872.0
0.0 Main_Page en 1.0 8533729872.0
0.0 Netflix en 1.0 169502962.0
0.0 Main_Page en 1.0 8533729872.0
0.0 Main_Page en 1.0 8533729872.0
0.0 Main_Page en 1.0 8533729872.0
0.0 Email en 1.0 9696779.0
0.0 Chichijima_incident en 1.0 156777745.0
0.0 Bajrangi_Bhaijaan en 1.0 3415870.0
0.0 Poland en 1.0 28305891.0
0.0 House_of_Cards_(U.S._TV_series) en 1.0 19951905.0
0.0 Main_Page en 1.0 8533729872.0
0.0 Main_Page en 1.0 8533729872.0
0.0 Main_Page en 1.0 8533729872.0
0.0 Jallikattu en 1.0 9535280.0
0.0 Main_Page en 1.0 8533729872.0
0.0 2015_in_film en 1.0 110436486.0
0.0 Chichijima_incident en 1.0 156777745.0
0.0 Main_Page en 1.0 8533729872.0
0.0 Tardigrade en 1.0 5493203.0
0.0 File:Death_angel_saunaopenair2010.jpg en 1.0 4335364.0
0.0 Main_Page en 1.0 8533729872.0
0.0 Wikipedia:Verifiability en 1.0 6007985.0
0.0 Main_Page en 1.0 8533729872.0
0.0 Main_Page en 1.0 8533729872.0
0.0 Hentai en 1.0 7476821.0
0.0 Special:BlankPage en 1.0 942340592.0
0.0 Main_Page en 1.0 8533729872.0
0.0 Main_Page en 1.0 8533729872.0
0.0 Demat_account en 1.0 174061131.0
0.0 A_Song_of_Ice_and_Fire en 1.0 11930674.0
0.0 Bikini en 1.0 177244701.0
0.0 Main_Page en 1.0 8533729872.0
0.0 Mandana_Karimi en 1.0 2478804.0
0.0 Main_Page en 1.0 8533729872.0
0.0 Main_Page en 1.0 8533729872.0
0.0 Purpose_(Justin_Bieber_album) en 1.0 9274852.0
0.0 Special:Search en 1.0 108047570.0
0.0 PHP en 1.0 11039419.0
0.0 The_Man_in_the_High_Castle en 1.0 7677682.0
0.0 Main_Page en 1.0 8533729872.0
0.0 IPhone en 1.0 15238920.0
0.0 YouTube en 1.0 70921797.0
0.0 Main_Page en 1.0 8533729872.0
0.0 Web_scraping en 1.0 28358326.0
0.0 Main_Page en 1.0 8533729872.0
0.0 Main_Page en 1.0 8533729872.0
0.0 South_Korea en 1.0 83088561.0
0.0 Main_Page en 1.0 8533729872.0
0.0 Special:BlankPage en 1.0 942340592.0
0.0 Kyaa_Kool_Hain_Hum_3 en 1.0 2753320.0
0.0 Special:UserLogin en 1.0 1047123130.0
0.0 Main_Page en 1.0 8533729872.0
0.0 Main_Page en 1.0 8533729872.0
0.0 Main_Page en 1.0 8533729872.0
0.0 Main_Page en 1.0 8533729872.0
0.0 Special:BlankPage en 1.0 942340592.0
0.0 Special:HideBanners en 1.0 0.0
0.0 War_and_Peace en 1.0 6545657.0
0.0 Unmanned_aerial_vehicle en 1.0 55686108.0
0.0 Main_Page en 1.0 8533729872.0
0.0 Main_Page en 1.0 8533729872.0
0.0 Barack_Obama en 1.0 187934080.0
0.0 Main_Page en 1.0 8533729872.0
0.0 Main_Page en 1.0 8533729872.0
0.0 Main_Page en 1.0 8533729872.0
0.0 Main_Page en 1.0 8533729872.0
0.0 Main_Page en 1.0 8533729872.0
0.0 Sian_Blake en 1.0 12936061.0
0.0 Cephalopod en 1.0 103351379.0
0.0 Main_Page en 1.0 8533729872.0
0.0 Main_Page en 1.0 8533729872.0
0.0 Main_Page en 1.0 8533729872.0
0.0 Web_scraping en 1.0 28358326.0
0.0 File:Evander_Holyfield_LA_2011.jpg en 1.0 175595651.0
0.0 Special:BlankPage en 1.0 942340592.0
0.0 Main_Page en 1.0 8533729872.0
0.0 Main_Page en 1.0 8533729872.0
0.0 Blood_type en 1.0 3854647.0
0.0 Main_Page en 1.0 8533729872.0
0.0 Mahatma_Gandhi en 1.0 49147085.0
0.0 Special:UserLogin en 1.0 1047123130.0
0.0 Adam_Driver en 1.0 11421115.0
0.0 Main_Page en 1.0 8533729872.0
0.0 File:Evander_Holyfield_LA_2011.jpg en 1.0 175595651.0
0.0 Main_Page en 1.0 8533729872.0
0.0 Main_Page en 1.0 8533729872.0
0.0 Demat_account en 1.0 174061131.0
0.0 Special:UserLogin en 1.0 1047123130.0
0.0 Main_Page en 1.0 8533729872.0
0.0 Main_Page en 1.0 8533729872.0
0.0 Special:BlankPage en 1.0 942340592.0
0.0 Main_Page en 1.0 8533729872.0
0.0 Main_Page en 1.0 8533729872.0
0.0 Main_Page en 1.0 8533729872.0
0.0 Main_Page en 1.0 8533729872.0
0.0 Main_Page en 1.0 8533729872.0
0.0 Main_Page en 1.0 8533729872.0
0.0 Kim_Jong-un en 1.0 55847144.0
0.0 Star_Wars en 1.0 136598327.0
0.0 List_of_South_Park_episodes en 1.0 8977772.0
0.0 The_Vampire_Diaries en 1.0 8591726.0
0.0 Swami_Vivekananda en 1.0 28087252.0
0.0 Main_Page en 1.0 8533729872.0
0.0 Special:UserLogin en 1.0 1047123130.0
0.0 Oculus_Rift en 1.0 14737249.0
0.0 Special:BlankPage en 1.0 942340592.0
0.0 Main_Page en 1.0 8533729872.0
0.0 Main_Page en 1.0 8533729872.0
0.0 Special:UserLogin en 1.0 1047123130.0
0.0 Main_Page en 1.0 8533729872.0
0.0 Special:Search en 1.0 108047570.0
0.0 EastEnders en 1.0 10851907.0
0.0 Sof%C3%ADa_Vergara en 1.0 4076034.0
0.0 Special:Search en 1.0 108047570.0
0.0 Hello_(Adele_song) en 1.0 6338914.0
0.0 Main_Page en 1.0 8533729872.0
0.0 Main_Page en 1.0 8533729872.0
0.0 Fifth_Harmony en 1.0 5305850.0
0.0 Star_Wars:_The_Force_Awakens en 1.0 360319666.0
0.0 Special:UserLogin en 1.0 1047123130.0
0.0 Patti_LuPone en 1.0 10024100.0
0.0 Special:UserLogin en 1.0 1047123130.0
0.0 Main_Page en 1.0 8533729872.0
0.0 Special:BlankPage en 1.0 942340592.0
0.0 /en.wikiversity.org/wiki/w/index.php en 1.0 7650481.0
0.0 Main_Page en 1.0 8533729872.0
0.0 Cephalopod en 1.0 103351379.0
0.0 Main_Page en 1.0 8533729872.0
0.0 Main_Page en 1.0 8533729872.0
0.0 Main_Page en 1.0 8533729872.0
0.0 Main_Page en 1.0 8533729872.0
0.0 Special:Watchlist en 1.0 76035929.0
0.0 Demat_account en 1.0 174061131.0
0.0 Main_Page en 1.0 8533729872.0
0.0 Main_Page en 1.0 8533729872.0
0.0 Java_(programming_language) en 1.0 9701848.0
0.0 Main_Page en 1.0 8533729872.0
0.0 Main_Page en 1.0 8533729872.0
0.0 Main_Page en 1.0 8533729872.0
0.0 Main_Page en 1.0 8533729872.0
0.0 Bikini en 1.0 177244701.0
0.0 Denial-of-service_attack en 1.0 8648800.0
0.0 Special:BlankPage en 1.0 942340592.0
0.0 Dilwale_(2015_film) en 1.0 24935892.0
0.0 Krishna en 1.0 10350384.0
0.0 Main_Page en 1.0 8533729872.0
0.0 Main_Page en 1.0 8533729872.0
0.0 The_5th_Wave_(novel) en 1.0 2471180.0
0.0 List_of_The_Blacklist_episodes en 1.0 14007009.0
0.0 Special:BlankPage en 1.0 942340592.0
0.0 File:Evander_Holyfield_LA_2011.jpg en 1.0 175595651.0
0.0 Main_Page en 1.0 8533729872.0
0.0 Main_Page en 1.0 8533729872.0
0.0 Chinese_zodiac en 1.0 3669508.0
0.0 Main_Page en 1.0 8533729872.0
0.0 Lycos en 1.0 10476017.0
0.0 Main_Page en 1.0 8533729872.0
0.0 Main_Page en 1.0 8533729872.0
0.0 Main_Page en 1.0 8533729872.0
0.0 Special:UserLogin en 1.0 1047123130.0
0.0 Stoya en 1.0 2495012.0
0.0 Web_scraping en 1.0 28358326.0
0.0 Much_Ado_About_Nothing en 1.0 40783320.0
0.0 Special:UserLogin en 1.0 1047123130.0
0.0 Main_Page en 1.0 8533729872.0
0.0 Indonesia en 1.0 26881477.0
0.0 Main_Page en 1.0 8533729872.0
0.0 Main_Page en 1.0 8533729872.0
0.0 Bipolar_disorder en 1.0 10126182.0
0.0 Main_Page en 1.0 8533729872.0
0.0 Demat_account en 1.0 174061131.0
0.0 Main_Page en 1.0 8533729872.0
0.0 Pareto_principle en 1.0 2171351.0
0.0 Main_Page en 1.0 8533729872.0
0.0 London en 1.0 60949527.0
0.0 Main_Page en 1.0 8533729872.0
0.0 Special:BlankPage en 1.0 942340592.0
0.0 Main_Page en 1.0 8533729872.0
0.0 Main_Page en 1.0 8533729872.0
0.0 Main_Page en 1.0 8533729872.0
0.0 Star_Wars en 1.0 136598327.0
0.0 Main_Page en 1.0 8533729872.0
0.0 Main_Page en 1.0 8533729872.0
0.0 AC/DC en 1.0 10119901.0
0.0 File:Michael_Jackson_in_1988.jpg en 1.0 6527560.0
0.0 Star_Wars_Episode_III:_Revenge_of_the_Sith en 1.0 18655651.0
0.0 Special:BlankPage en 1.0 942340592.0
0.0 Special:UserLogin en 1.0 1047123130.0
0.0 Main_Page en 1.0 8533729872.0
0.0 Main_Page en 1.0 8533729872.0
0.0 Chichijima_incident en 1.0 156777745.0
0.0 November_2015_Paris_attacks en 1.0 14863013.0
0.0 Main_Page en 1.0 8533729872.0
0.0 One-Punch_Man en 1.0 14955107.0
0.0 Main_Page en 1.0 8533729872.0
0.0 Jim_Carrey en 1.0 6037442.0
0.0 Main_Page en 1.0 8533729872.0
0.0 Making_a_Murderer en 1.0 33144160.0
0.0 Main_Page en 1.0 8533729872.0
0.0 Main_Page en 1.0 8533729872.0
0.0 Kashibai en 1.0 1584401.0
0.0 Special:BlankPage en 1.0 942340592.0
0.0 Special:UserLogin en 1.0 1047123130.0
0.0 Main_Page en 1.0 8533729872.0
0.0 Special:UserLogin en 1.0 1047123130.0
0.0 Main_Page en 1.0 8533729872.0
0.0 Olivia_Wilde en 1.0 2818368.0
0.0 United_States en 1.0 177805436.0
0.0 Main_Page en 1.0 8533729872.0
0.0 The_Amityville_Horror en 1.0 2993033.0
0.0 Special:UserLogin en 1.0 1047123130.0
0.0 Main_Page en 1.0 8533729872.0
0.0 Bikini en 1.0 177244701.0
0.0 Albert_Einstein en 1.0 50747527.0
0.0 Special:BlankPage en 1.0 942340592.0
0.0 Main_Page en 1.0 8533729872.0
0.0 Main_Page en 1.0 8533729872.0
0.0 Object-oriented_programming en 1.0 5954782.0
0.0 Main_Page en 1.0 8533729872.0
0.0 Main_Page en 1.0 8533729872.0
0.0 Special:UserLogin en 1.0 1047123130.0
0.0 Category:Articles_with_hCards en 1.0 9232856.0
0.0 File:Evander_Holyfield_LA_2011.jpg en 1.0 175595651.0
0.0 Main_Page en 1.0 8533729872.0
0.0 Java_(programming_language) en 1.0 9701848.0
0.0 Chichijima_incident en 1.0 156777745.0
0.0 Main_Page en 1.0 8533729872.0
0.0 Main_Page en 1.0 8533729872.0
0.0 Main_Page en 1.0 8533729872.0
0.0 Special:BlankPage en 1.0 942340592.0
0.0 Prince_Narula en 1.0 1940423.0
0.0 Main_Page en 1.0 8533729872.0
0.0 Main_Page en 1.0 8533729872.0
0.0 Main_Page en 1.0 8533729872.0
0.0 Special:UserLogin en 1.0 1047123130.0
0.0 Main_Page en 1.0 8533729872.0
0.0 Afghanistan en 1.0 19322285.0
0.0 Main_Page en 1.0 8533729872.0
0.0 Special:UserLogin en 1.0 1047123130.0
0.0 Main_Page en 1.0 8533729872.0
0.0 Main_Page en 1.0 8533729872.0
0.0 Main_Page en 1.0 8533729872.0
0.0 Special:UserLogin en 1.0 1047123130.0
0.0 Channing_Tatum en 1.0 21674983.0
0.0 List_of_Walt_Disney_Pictures_films en 1.0 4595506.0
0.0 Main_Page en 1.0 8533729872.0
0.0 Jessica_Jones en 1.0 9638941.0
0.0 Main_Page en 1.0 8533729872.0
0.0 Special:BlankPage en 1.0 942340592.0
0.0 Main_Page en 1.0 8533729872.0
0.0 Special:UserLogin en 1.0 1047123130.0
0.0 Alexander_the_Great en 1.0 21700799.0
0.0 Special:BlankPage en 1.0 942340592.0
0.0 Corrupted_Blood_incident en 1.0 20892406.0
0.0 Olivia_Munn en 1.0 6991775.0
0.0 Main_Page en 1.0 8533729872.0
0.0 Main_Page en 1.0 8533729872.0
0.0 Demat_account en 1.0 174061131.0
0.0 Special:UserLogin en 1.0 1047123130.0
0.0 Main_Page en 1.0 8533729872.0
0.0 Chichijima_incident en 1.0 156777745.0
0.0 States_and_union_territories_of_India en 1.0 5268666.0
0.0 Erin_Moran en 1.0 1073681.0
0.0 Main_Page en 1.0 8533729872.0
0.0 Main_Page en 1.0 8533729872.0
0.0 Main_Page en 1.0 8533729872.0
0.0 Main_Page en 1.0 8533729872.0
0.0 Main_Page en 1.0 8533729872.0
0.0 Main_Page en 1.0 8533729872.0
0.0 Main_Page en 1.0 8533729872.0
0.0 Main_Page en 1.0 8533729872.0
0.0 Operation_Auca en 1.0 15045086.0
0.0 Main_Page en 1.0 8533729872.0
0.0 Germany en 1.0 56890243.0
0.0 Mars en 1.0 17784124.0
0.0 Restriction_of_Hazardous_Substances_Directive en 1.0 18381559.0
0.0 Main_Page en 1.0 8533729872.0
0.0 Main_Page en 1.0 8533729872.0
0.0 Web_scraping en 1.0 28358326.0
0.0 Main_Page en 1.0 8533729872.0
0.0 Main_Page en 1.0 8533729872.0
0.0 Main_Page en 1.0 8533729872.0
0.0 Microsoft en 1.0 17909847.0
0.0 File:Michel_Platini_2010.jpg en 1.0 9570496.0
0.0 Main_Page en 1.0 8533729872.0
0.0 Main_Page en 1.0 8533729872.0
0.0 Special:BlankPage en 1.0 942340592.0
0.0 2015_in_film en 1.0 110436486.0
0.0 Special:Search en 1.0 108047570.0
0.0 Barack_Obama en 1.0 187934080.0
0.0 Special:UserLogin en 1.0 1047123130.0
0.0 Chichijima_incident en 1.0 156777745.0
0.0 Help:Contents en 1.0 6441340.0
0.0 Bacterial_microcompartment en 1.0 4070693.0
0.0 Main_Page en 1.0 8533729872.0
0.0 Special:UserLogin en 1.0 1047123130.0
0.0 Main_Page en 1.0 8533729872.0
0.0 Real_Madrid_C.F. en 1.0 15390459.0
0.0 Special:BlankPage en 1.0 942340592.0
0.0 Special:BlankPage en 1.0 942340592.0
0.0 Main_Page en 1.0 8533729872.0
0.0 Special:BlankPage en 1.0 942340592.0
0.0 Vodafone en 1.0 125393612.0
0.0 Sian_Blake en 1.0 12936061.0
0.0 List_of_Super_Bowl_champions en 1.0 4912542.0
0.0 Main_Page en 1.0 8533729872.0
0.0 Sian_Blake en 1.0 12936061.0
0.0 Main_Page en 1.0 8533729872.0
0.0 Special:UserLogin en 1.0 1047123130.0
0.0 Main_Page en 1.0 8533729872.0
0.0 Web_scraping en 1.0 28358326.0
0.0 File:Premier_League.svg en 1.0 1202691.0
0.0 Special:BlankPage en 1.0 942340592.0
0.0 American_Horror_Story:_Hotel en 1.0 31967284.0
0.0 Main_Page en 1.0 8533729872.0
0.0 Web_scraping en 1.0 28358326.0
0.0 Special:UserLogin en 1.0 1047123130.0
0.0 Star_Wars_Rebels en 1.0 14772965.0
0.0 Main_Page en 1.0 8533729872.0
0.0 Special:UserLogin en 1.0 1047123130.0
0.0 Main_Page en 1.0 8533729872.0
0.0 Special:UserLogin en 1.0 1047123130.0
0.0 Main_Page en 1.0 8533729872.0
0.0 File:MSC_2014_Blair_Mueller_MSC2014_(cropped).jpg en 1.0 4137176.0
0.0 Main_Page en 1.0 8533729872.0
0.0 The_Revenant_(2015_film) en 1.0 59359352.0
0.0 Special:BlankPage en 1.0 942340592.0
0.0 Main_Page en 1.0 8533729872.0
0.0 Main_Page en 1.0 8533729872.0
0.0 Main_Page en 1.0 8533729872.0
0.0 Main_Page en 1.0 8533729872.0
0.0 Main_Page en 1.0 8533729872.0
0.0 Main_Page en 1.0 8533729872.0
0.0 Vaquita en 1.0 17917497.0
0.0 Main_Page en 1.0 8533729872.0
0.0 Main_Page en 1.0 8533729872.0
0.0 Main_Page en 1.0 8533729872.0
0.0 Abraham_Lincoln en 1.0 29365817.0
0.0 Main_Page en 1.0 8533729872.0
0.0 Main_Page en 1.0 8533729872.0
0.0 Main_Page en 1.0 8533729872.0
0.0 George_H._W._Bush en 1.0 221410448.0
0.0 Special:UserLogin en 1.0 1047123130.0
0.0 Auckland_volcanic_field en 1.0 1654545.0
0.0 Special:Search en 1.0 108047570.0
0.0 Daisy_Ridley en 1.0 12796791.0
0.0 Main_Page en 1.0 8533729872.0
0.0 Main_Page en 1.0 8533729872.0
0.0 Stainless_steel en 1.0 4815886.0
0.0 Special:BlankPage en 1.0 942340592.0
0.0 Main_Page en 1.0 8533729872.0
0.0 Special:UserLogin en 1.0 1047123130.0
0.0 South_Asian_Association_for_Regional_Cooperation en 1.0 6759010.0
0.0 Main_Page en 1.0 8533729872.0
0.0 Main_Page en 1.0 8533729872.0
0.0 Main_Page en 1.0 8533729872.0
0.0 Special:Search en 1.0 108047570.0
0.0 Stella_Gibbons en 1.0 18874768.0
0.0 Special:BlankPage en 1.0 942340592.0
0.0 Special:Search en 1.0 108047570.0
0.0 Special:UserLogin en 1.0 1047123130.0
0.0 John_Eleuth%C3%A8re_du_Pont en 1.0 6584323.0
0.0 File:Evander_Holyfield_LA_2011.jpg en 1.0 175595651.0
0.0 Main_Page en 1.0 8533729872.0
0.0 Main_Page en 1.0 8533729872.0
0.0 Main_Page en 1.0 8533729872.0
0.0 Main_Page en 1.0 8533729872.0
0.0 Demat_account en 1.0 174061131.0
0.0 Main_Page en 1.0 8533729872.0
0.0 Main_Page en 1.0 8533729872.0
0.0 Arrow_(TV_series) en 1.0 22005550.0
0.0 Main_Page en 1.0 8533729872.0
0.0 Java_(programming_language) en 1.0 9701848.0
0.0 Main_Page en 1.0 8533729872.0
0.0 Main_Page en 1.0 8533729872.0
0.0 Main_Page en 1.0 8533729872.0
0.0 Iron_Jacket en 1.0 6629539.0
0.0 Main_Page en 1.0 8533729872.0
0.0 Main_Page en 1.0 8533729872.0
0.0 Paper_size en 1.0 3792122.0
0.0 Main_Page en 1.0 8533729872.0
0.0 Main_Page en 1.0 8533729872.0
0.0 Bitcoin en 1.0 25564227.0
0.0 Main_Page en 1.0 8533729872.0
0.0 Main_Page en 1.0 8533729872.0
0.0 Main_Page en 1.0 8533729872.0
0.0 Iran%E2%80%93Saudi_Arabia_relations en 1.0 4307586.0
0.0 List_of_HTTP_status_codes en 1.0 10286216.0
0.0 Special:Search en 1.0 108047570.0
0.0 Exo_(band) en 1.0 4062628.0
0.0 Main_Page en 1.0 8533729872.0
0.0 Main_Page en 1.0 8533729872.0
0.0 File:Evander_Holyfield_LA_2011.jpg en 1.0 175595651.0
0.0 2016_WTA_Tour en 1.0 10728596.0
0.0 Main_Page en 1.0 8533729872.0
0.0 Main_Page en 1.0 8533729872.0
0.0 Main_Page en 1.0 8533729872.0
0.0 Main_Page en 1.0 8533729872.0
0.0 Special:UserLogin en 1.0 1047123130.0
0.0 Bikini en 1.0 177244701.0
0.0 Star_Wars:_The_Force_Awakens en 1.0 360319666.0
0.0 Main_Page en 1.0 8533729872.0
0.0 Main_Page en 1.0 8533729872.0
0.0 Main_Page en 1.0 8533729872.0
0.0 Main_Page en 1.0 8533729872.0
0.0 Ip_Man_3 en 1.0 3807588.0
0.0 Main_Page en 1.0 8533729872.0
0.0 Main_Page en 1.0 8533729872.0
0.0 Chile en 1.0 24658633.0
0.0 Main_Page en 1.0 8533729872.0
0.0 Special:Search en 1.0 108047570.0
0.0 German_Moreno en 1.0 14611541.0
0.0 Special:BlankPage en 1.0 942340592.0
0.0 Main_Page en 1.0 8533729872.0
0.0 Main_Page en 1.0 8533729872.0
0.0 Shanghai_Stock_Exchange en 1.0 6889251.0
0.0 Main_Page en 1.0 8533729872.0
0.0 Main_Page en 1.0 8533729872.0
0.0 Main_Page en 1.0 8533729872.0
0.0 XML en 1.0 5938220.0
0.0 Main_Page en 1.0 8533729872.0
0.0 Chris_Brown en 1.0 7609605.0
0.0 Special:UserLogin en 1.0 1047123130.0
0.0 Deaths_in_2015 en 1.0 3018514.0
0.0 George_H._W._Bush en 1.0 221410448.0
0.0 Main_Page en 1.0 8533729872.0
0.0 Special:BlankPage en 1.0 942340592.0
0.0 Terry_Brooks en 1.0 2377453.0
0.0 Main_Page en 1.0 8533729872.0
0.0 Main_Page en 1.0 8533729872.0
0.0 Main_Page en 1.0 8533729872.0
0.0 Main_Page en 1.0 8533729872.0
0.0 A.J._Styles en 1.0 20119634.0
0.0 Steven_Avery en 1.0 25258095.0
0.0 List_of_feed_aggregators en 1.0 11082992.0
0.0 Special:UserLogin en 1.0 1047123130.0
0.0 Main_Page en 1.0 8533729872.0
0.0 Main_Page en 1.0 8533729872.0
0.0 Main_Page en 1.0 8533729872.0
0.0 Main_Page en 1.0 8533729872.0
0.0 Main_Page en 1.0 8533729872.0
0.0 List_of_highest-grossing_films_in_the_Philippines en 1.0 6308437.0
0.0 Main_Page en 1.0 8533729872.0
0.0 Huawei en 1.0 9875268.0
0.0 Special:BlankPage en 1.0 942340592.0
0.0 Main_Page en 1.0 8533729872.0
0.0 File:Ken_Griffey,_Jr._June_2009.jpg en 1.0 4631612.0
0.0 Main_Page en 1.0 8533729872.0
0.0 Main_Page en 1.0 8533729872.0
0.0 Polydactyly en 1.0 4456244.0
0.0 Main_Page en 1.0 8533729872.0
0.0 Republican_Party_presidential_primaries,_2016 en 1.0 5820614.0
0.0 Wikipedia en 1.0 114702369.0
0.0 Making_a_Murderer en 1.0 33144160.0
0.0 Benedict_Cumberbatch en 1.0 14493779.0
0.0 Chichijima_incident en 1.0 156777745.0
0.0 Main_Page en 1.0 8533729872.0
0.0 The_Big_Bang_Theory_(season_9) en 1.0 19663753.0
0.0 Main_Page en 1.0 8533729872.0
0.0 Special:BlankPage en 1.0 942340592.0
0.0 List_of_Running_Man_episodes en 1.0 73019342.0
0.0 Main_Page en 1.0 8533729872.0
0.0 Chichijima_incident en 1.0 156777745.0
0.0 Special:BlankPage en 1.0 942340592.0
0.0 Main_Page en 1.0 8533729872.0
0.0 Main_Page en 1.0 8533729872.0
0.0 Special:BlankPage en 1.0 942340592.0
0.0 Main_Page en 1.0 8533729872.0
0.0 Michael_Fassbender en 1.0 8023173.0
0.0 Special:BlankPage en 1.0 942340592.0
0.0 Main_Page en 1.0 8533729872.0
0.0 Main_Page en 1.0 8533729872.0
0.0 Main_Page en 1.0 8533729872.0
0.0 Thermonuclear_weapon en 1.0 70269413.0
0.0 Main_Page en 1.0 8533729872.0
0.0 Nina_Dobrev en 1.0 3964091.0
0.0 Special:UserLogin en 1.0 1047123130.0
0.0 Main_Page en 1.0 8533729872.0
0.0 List_of_Bollywood_films_of_2016 en 1.0 28421096.0
0.0 Main_Page en 1.0 8533729872.0
0.0 Main_Page en 1.0 8533729872.0
0.0 Chichijima_incident en 1.0 156777745.0
0.0 Main_Page en 1.0 8533729872.0
0.0 Main_Page en 1.0 8533729872.0
0.0 Gone_with_the_Wind_(film) en 1.0 9486403.0
0.0 George_H._W._Bush_vomiting_incident en 1.0 14363364.0
0.0 Royal_Rumble_(2016) en 1.0 8465848.0
0.0 Main_Page en 1.0 8533729872.0
0.0 Special:BlankPage en 1.0 942340592.0
0.0 Goods_and_Services_Tax_(India)_Bill en 1.0 2593782.0
0.0 Main_Page en 1.0 8533729872.0
0.0 Special:BlankPage en 1.0 942340592.0
0.0 Main_Page en 1.0 8533729872.0
0.0 Main_Page en 1.0 8533729872.0
0.0 Main_Page en 1.0 8533729872.0
0.0 Poffertjes en 1.0 113389.0
0.0 Representational_state_transfer en 1.0 3015629.0
0.0 The_Walk_(2015_film) en 1.0 3564150.0
0.0 Joseph_Stalin en 1.0 25533166.0
0.0 Main_Page en 1.0 8533729872.0
0.0 Main_Page en 1.0 8533729872.0
0.0 Main_Page en 1.0 8533729872.0
0.0 Main_Page en 1.0 8533729872.0
0.0 Bikini en 1.0 177244701.0
0.0 Special:BlankPage en 1.0 942340592.0
0.0 Special:UserLogin en 1.0 1047123130.0
0.0 Main_Page en 1.0 8533729872.0
0.0 Special:UserLogin en 1.0 1047123130.0
0.0 Stanford_University en 1.0 423477444.0
0.0 Main_Page en 1.0 8533729872.0
0.0 Main_Page en 1.0 8533729872.0
0.0 Main_Page en 1.0 8533729872.0
0.0 James_Cameron en 1.0 11192934.0
0.0 Special:UserLogin en 1.0 1047123130.0
0.0 Main_Page en 1.0 8533729872.0
0.0 Main_Page en 1.0 8533729872.0
0.0 Main_Page en 1.0 8533729872.0
0.0 Main_Page en 1.0 8533729872.0
0.0 Main_Page en 1.0 8533729872.0
0.0 Main_Page en 1.0 8533729872.0
0.0 Shamsher_Bahadur_I_(Krishna_Rao) en 1.0 1422648.0
0.0 Special:UserLogin en 1.0 1047123130.0
0.0 Main_Page en 1.0 8533729872.0
0.0 Main_Page en 1.0 8533729872.0
0.0 Main_Page en 1.0 8533729872.0
0.0 Main_Page en 1.0 8533729872.0
0.0 Main_Page en 1.0 8533729872.0
0.0 Special:BlankPage en 1.0 942340592.0
0.0 Special:BlankPage en 1.0 942340592.0
0.0 Main_Page en 1.0 8533729872.0
0.0 Rise_of_the_Tomb_Raider en 1.0 3838024.0
0.0 Main_Page en 1.0 8533729872.0
0.0 Game_of_Thrones en 1.0 78026053.0
0.0 Special:UserLogin en 1.0 1047123130.0
0.0 Special:UserLogin en 1.0 1047123130.0
0.0 Special:BlankPage en 1.0 942340592.0
0.0 Chichijima_incident en 1.0 156777745.0
0.0 Main_Page en 1.0 8533729872.0
0.0 Special:BlankPage en 1.0 942340592.0
0.0 Jane_Kaczmarek en 1.0 2550102.0
0.0 Main_Page en 1.0 8533729872.0
0.0 Main_Page en 1.0 8533729872.0
0.0 Special:UserLogin en 1.0 1047123130.0
0.0 Kerala en 1.0 22059343.0
0.0 Main_Page en 1.0 8533729872.0
0.0 Main_Page en 1.0 8533729872.0
0.0 Main_Page en 1.0 8533729872.0
0.0 Main_Page en 1.0 8533729872.0
0.0 Main_Page en 1.0 8533729872.0
0.0 Demat_account en 1.0 174061131.0
0.0 Gigi_Hadid en 1.0 13273495.0
0.0 Apache_Tomcat en 1.0 2297146.0
0.0 Main_Page en 1.0 8533729872.0
0.0 Special:HideBanners en 1.0 0.0
0.0 Special:UserLogin en 1.0 1047123130.0
0.0 Main_Page en 1.0 8533729872.0
0.0 Main_Page en 1.0 8533729872.0
0.0 Armenia en 1.0 18641604.0
0.0 Main_Page en 1.0 8533729872.0
0.0 File:Evander_Holyfield_LA_2011.jpg en 1.0 175595651.0
0.0 Main_Page en 1.0 8533729872.0
0.0 Special:UserLogin en 1.0 1047123130.0
0.0 Main_Page en 1.0 8533729872.0
0.0 Demat_account en 1.0 174061131.0
0.0 Chichijima_incident en 1.0 156777745.0
0.0 Chichijima_incident en 1.0 156777745.0
0.0 Catherine,_Duchess_of_Cambridge en 1.0 7001140.0
0.0 Main_Page en 1.0 8533729872.0
0.0 Main_Page en 1.0 8533729872.0
0.0 Main_Page en 1.0 8533729872.0
0.0 Special:BlankPage en 1.0 942340592.0
0.0 Special:BlankPage en 1.0 942340592.0
0.0 List_of_pornographic_actresses_by_decade en 1.0 3033342.0
0.0 Special:Search en 1.0 108047570.0
0.0 Special:BlankPage en 1.0 942340592.0
0.0 Main_Page en 1.0 8533729872.0
0.0 Special:BlankPage en 1.0 942340592.0
0.0 Main_Page en 1.0 8533729872.0
0.0 Main_Page en 1.0 8533729872.0
0.0 Special:UserLogin en 1.0 1047123130.0
0.0 Main_Page en 1.0 8533729872.0
0.0 Indian_elephant en 1.0 16392746.0
0.0 Mel_McLaughlin en 1.0 2328259.0
0.0 Special:UserLogin en 1.0 1047123130.0
0.0 Special:BlankPage en 1.0 942340592.0
0.0 Chichijima_incident en 1.0 156777745.0
0.0 The_Boy_(2016_film) en 1.0 1866457.0
0.0 Grand_Theft_Auto_V en 1.0 9688876.0
0.0 Main_Page en 1.0 8533729872.0
0.0 Game_(rapper) en 1.0 8240132.0
0.0 Main_Page en 1.0 8533729872.0
0.0 Special:BlankPage en 1.0 942340592.0
0.0 Main_Page en 1.0 8533729872.0
0.0 Special:BlankPage en 1.0 942340592.0
0.0 Main_Page en 1.0 8533729872.0
0.0 Main_Page en 1.0 8533729872.0
0.0 File:Evander_Holyfield_LA_2011.jpg en 1.0 175595651.0
0.0 The_Big_Short_(film) en 1.0 17303600.0
0.0 Main_Page en 1.0 8533729872.0
0.0 Main_Page en 1.0 8533729872.0
0.0 The_Man_from_U.N.C.L.E._(film) en 1.0 3091823.0
0.0 List_of_Elementary_episodes en 1.0 17887705.0
0.0 Special:BlankPage en 1.0 942340592.0
0.0 Special:UserLogin en 1.0 1047123130.0
0.0 Main_Page en 1.0 8533729872.0
0.0 Main_Page en 1.0 8533729872.0
0.0 The_Forest_(2016_film) en 1.0 11222918.0
0.0 Main_Page en 1.0 8533729872.0
0.0 Main_Page en 1.0 8533729872.0
0.0 Main_Page en 1.0 8533729872.0
0.0 Main_Page en 1.0 8533729872.0
0.0 Special:BlankPage en 1.0 942340592.0
0.0 Main_Page en 1.0 8533729872.0
0.0 Sherlock_Holmes en 1.0 16302479.0
0.0 Chrissy_Teigen en 1.0 6709919.0
0.0 Main_Page en 1.0 8533729872.0
0.0 Main_Page en 1.0 8533729872.0
0.0 Main_Page en 1.0 8533729872.0
0.0 Main_Page en 1.0 8533729872.0
0.0 Main_Page en 1.0 8533729872.0
0.0 Main_Page en 1.0 8533729872.0
0.0 Netflix en 1.0 169502962.0
0.0 File:Evander_Holyfield_LA_2011.jpg en 1.0 175595651.0
0.0 Special:UserLogin en 1.0 1047123130.0
0.0 Main_Page en 1.0 8533729872.0
0.0 Main_Page en 1.0 8533729872.0
0.0 Main_Page en 1.0 8533729872.0
0.0 International_Space_Station en 1.0 28489946.0
0.0 Special:UserLogin en 1.0 1047123130.0
0.0 Steven_Universe en 1.0 16801185.0
0.0 Special:BlankPage en 1.0 942340592.0
0.0 Special:UserLogin en 1.0 1047123130.0
0.0 Special:UserLogin en 1.0 1047123130.0
0.0 British_people en 1.0 51776472.0
0.0 Main_Page en 1.0 8533729872.0
0.0 Special:BlankPage en 1.0 942340592.0
0.0 Main_Page en 1.0 8533729872.0
0.0 Sex en 1.0 5249784.0
0.0 Main_Page en 1.0 8533729872.0
0.0 Zoroastrianism en 1.0 7107671.0
0.0 The_Shannara_Chronicles en 1.0 24672996.0
0.0 Norway en 1.0 27914005.0
0.0 Main_Page en 1.0 8533729872.0
0.0 Main_Page en 1.0 8533729872.0
0.0 Alice_Eve en 1.0 2169715.0
0.0 Main_Page en 1.0 8533729872.0
0.0 Kylo_Ren en 1.0 16742312.0
0.0 Main_Page en 1.0 8533729872.0
0.0 Special:UserLogin en 1.0 1047123130.0
0.0 Special:UserLogin en 1.0 1047123130.0
0.0 Main_Page en 1.0 8533729872.0
0.0 Main_Page en 1.0 8533729872.0
0.0 Main_Page en 1.0 8533729872.0
0.0 Opera en 1.0 69325913.0
0.0 Main_Page en 1.0 8533729872.0
0.0 Main_Page en 1.0 8533729872.0
0.0 Main_Page en 1.0 8533729872.0
0.0 Main_Page en 1.0 8533729872.0
0.0 George_H._W._Bush en 1.0 221410448.0
0.0 Special:UserLogin en 1.0 1047123130.0
0.0 Kate_Mara en 1.0 5187146.0
0.0 Special:BlankPage en 1.0 942340592.0
0.0 Special:BlankPage en 1.0 942340592.0
0.0 Main_Page en 1.0 8533729872.0
0.0 Special:BlankPage en 1.0 942340592.0
0.0 Main_Page en 1.0 8533729872.0
0.0 Special:UserLogin en 1.0 1047123130.0
0.0 Special:BlankPage en 1.0 942340592.0
0.0 Main_Page en 1.0 8533729872.0
0.0 William_Gibson en 1.0 280778305.0
0.0 Main_Page en 1.0 8533729872.0
0.0 Main_Page en 1.0 8533729872.0
0.0 Kurt_Cobain en 1.0 9582273.0
0.0 Special:RecentChanges en 1.0 21739539.0
0.0 Special:Search en 1.0 108047570.0
0.0 Main_Page en 1.0 8533729872.0
0.0 Main_Page en 1.0 8533729872.0
0.0 List_of_Mayday_episodes en 1.0 6424871.0
0.0 Demat_account en 1.0 174061131.0
0.0 File:Evander_Holyfield_LA_2011.jpg en 1.0 175595651.0
0.0 Main_Page en 1.0 8533729872.0
0.0 Main_Page en 1.0 8533729872.0
0.0 Main_Page en 1.0 8533729872.0
0.0 Main_Page en 1.0 8533729872.0
0.0 Special:BlankPage en 1.0 942340592.0
0.0 Main_Page en 1.0 8533729872.0
0.0 Main_Page en 1.0 8533729872.0
0.0 Main_Page en 1.0 8533729872.0
0.0 Arrow_(TV_series) en 1.0 22005550.0
0.0 File:Evander_Holyfield_LA_2011.jpg en 1.0 175595651.0
0.0 Main_Page en 1.0 8533729872.0
0.0 Special:BlankPage en 1.0 942340592.0
0.0 Main_Page en 1.0 8533729872.0
0.0 Special:UserLogin en 1.0 1047123130.0
0.0 Special:UserLogin en 1.0 1047123130.0
0.0 Main_Page en 1.0 8533729872.0
0.0 Special:UserLogin en 1.0 1047123130.0
0.0 Special:Search en 1.0 108047570.0
0.0 Main_Page en 1.0 8533729872.0
0.0 The_Expanse_(TV_series) en 1.0 7545052.0
0.0 Main_Page en 1.0 8533729872.0
0.0 List_of_Bollywood_films_of_2015 en 1.0 33642693.0
0.0 Special:UserLogin en 1.0 1047123130.0
0.0 Main_Page en 1.0 8533729872.0
0.0 Main_Page en 1.0 8533729872.0
0.0 The_Challenge:_Battle_of_the_Bloodlines en 1.0 2468281.0
0.0 Main_Page en 1.0 8533729872.0
0.0 List_of_Running_Man_episodes en 1.0 73019342.0
0.0 Main_Page en 1.0 8533729872.0
0.0 Main_Page en 1.0 8533729872.0
0.0 Main_Page en 1.0 8533729872.0
0.0 Special:BlankPage en 1.0 942340592.0
0.0 Main_Page en 1.0 8533729872.0
0.0 Special:BlankPage en 1.0 942340592.0
0.0 The_Shannara_Chronicles en 1.0 24672996.0
0.0 Sweden en 1.0 28728302.0
0.0 Main_Page en 1.0 8533729872.0
0.0 Human en 1.0 20276880.0
0.0 The_Wachowskis en 1.0 5240375.0
0.0 Main_Page en 1.0 8533729872.0
0.0 Main_Page en 1.0 8533729872.0
0.0 Main_Page en 1.0 8533729872.0
0.0 index.html en 1.0 14152311.0
0.0 Main_Page en 1.0 8533729872.0
0.0 Burj_Khalifa en 1.0 13875835.0
0.0 Main_Page en 1.0 8533729872.0
0.0 Main_Page en 1.0 8533729872.0
0.0 Main_Page en 1.0 8533729872.0
0.0 Main_Page en 1.0 8533729872.0
0.0 Main_Page en 1.0 8533729872.0
0.0 File:Evander_Holyfield_LA_2011.jpg en 1.0 175595651.0
0.0 House_of_Cards_(season_4) en 1.0 1195389.0
0.0 Main_Page en 1.0 8533729872.0
0.0 Chichijima_incident en 1.0 156777745.0
0.0 Taya_Kyle en 1.0 1478241.0
0.0 Special:UserLogin en 1.0 1047123130.0
0.0 Special:UserLogin en 1.0 1047123130.0
0.0 Main_Page en 1.0 8533729872.0
0.0 Web_scraping en 1.0 28358326.0
0.0 Web_scraping en 1.0 28358326.0
0.0 Special:BlankPage en 1.0 942340592.0
0.0 Main_Page en 1.0 8533729872.0
0.0 Chichijima_incident en 1.0 156777745.0
0.0 Special:UserLogin en 1.0 1047123130.0
0.0 New_Year%27s_Eve_sexual_assaults_in_Germany en 1.0 29613078.0
0.0 Special:BlankPage en 1.0 942340592.0
0.0 Main_Page en 1.0 8533729872.0
0.0 Main_Page en 1.0 8533729872.0
0.0 Special:BlankPage en 1.0 942340592.0
0.0 The_Hobbit_(film_series) en 1.0 11398576.0
0.0 Lori_Loughlin en 1.0 2536386.0
0.0 Main_Page en 1.0 8533729872.0
0.0 Main_Page en 1.0 8533729872.0
0.0 Special:BlankPage en 1.0 942340592.0
0.0 Man_in_the_Wilderness en 1.0 1321074.0
0.0 The_Omen_(2006_film) en 1.0 2088846.0
0.0 Main_Page en 1.0 8533729872.0
0.0 Main_Page en 1.0 8533729872.0
0.0 Stephen_Baldwin en 1.0 3020073.0
0.0 Special:BlankPage en 1.0 942340592.0
0.0 Special:BlankPage en 1.0 942340592.0
0.0 January_8 en 1.0 50914427.0
0.0 Main_Page en 1.0 8533729872.0
0.0 File:Crilogo.jpg en 1.0 5759262.0
0.0 Main_Page en 1.0 8533729872.0
0.0 Main_Page en 1.0 8533729872.0
0.0 Larry_Page en 1.0 6803511.0
0.0 Special:UserLogin en 1.0 1047123130.0
0.0 Nissan_Leaf en 1.0 39462866.0
0.0 Special:BlankPage en 1.0 942340592.0
0.0 Main_Page en 1.0 8533729872.0
0.0 Special:UserLogin en 1.0 1047123130.0
0.0 File:Charlie_Hebdo_logo.svg en 1.0 12336839.0
0.0 Chichijima_incident en 1.0 156777745.0
0.0 Main_Page en 1.0 8533729872.0
0.0 Special:BlankPage en 1.0 942340592.0
0.0 Main_Page en 1.0 8533729872.0
0.0 Main_Page en 1.0 8533729872.0
0.0 Mufti_Mohammad_Sayeed en 1.0 8058813.0
0.0 Main_Page en 1.0 8533729872.0
0.0 Main_Page en 1.0 8533729872.0
0.0 LinkedIn en 1.0 10273567.0
0.0 Death_Proof en 1.0 2371319.0
0.0 Scientific_method en 1.0 70514125.0
0.0 Mohammad_bin_Salman_Al_Saud en 1.0 1932959.0
0.0 Main_Page en 1.0 8533729872.0
0.0 Main_Page en 1.0 8533729872.0
0.0 Climate_change en 1.0 8514453.0
0.0 Main_Page en 1.0 8533729872.0
0.0 Web_scraping en 1.0 28358326.0
0.0 Special:BlankPage en 1.0 942340592.0
0.0 Lip_Sync_Battle en 1.0 17720380.0
0.0 The_Wolf_of_Wall_Street_(2013_film) en 1.0 7488282.0
0.0 Brooklyn_Nine-Nine en 1.0 4786064.0
0.0 Main_Page en 1.0 8533729872.0
0.0 Mount_Everest en 1.0 23027813.0
0.0 Main_Page en 1.0 8533729872.0
0.0 Special:BlankPage en 1.0 942340592.0
0.0 List_of_highest-grossing_films_in_the_Philippines en 1.0 6308437.0
0.0 Main_Page en 1.0 8533729872.0
0.0 Shah_Rukh_Khan en 1.0 24385488.0
0.0 Main_Page en 1.0 8533729872.0
0.0 Millennials en 1.0 7768763.0
0.0 Main_Page en 1.0 8533729872.0
0.0 Main_Page en 1.0 8533729872.0
0.0 Twice_(band) en 1.0 2842447.0
0.0 El_Ni%C3%B1o en 1.0 15277131.0
0.0 Main_Page en 1.0 8533729872.0
0.0 Chichijima_incident en 1.0 156777745.0
0.0 Main_Page en 1.0 8533729872.0
0.0 Main_Page en 1.0 8533729872.0
0.0 Main_Page en 1.0 8533729872.0
0.0 Main_Page en 1.0 8533729872.0
0.0 Pornography en 1.0 11007204.0
0.0 HTTPS en 1.0 116491638.0
0.0 Main_Page en 1.0 8533729872.0
0.0 Main_Page en 1.0 8533729872.0
0.0 Star_Wars:_The_Force_Awakens en 1.0 360319666.0
0.0 Main_Page en 1.0 8533729872.0
0.0 FC_Barcelona en 1.0 11975916.0
0.0 Main_Page en 1.0 8533729872.0
0.0 Alessia_Cara en 1.0 2141184.0
0.0 File:DailyMirror.jpg en 1.0 1193152.0
0.0 Main_Page en 1.0 8533729872.0
0.0 Java_(programming_language) en 1.0 9701848.0
0.0 Special:UserLogin en 1.0 1047123130.0
0.0 Main_Page en 1.0 8533729872.0
0.0 Main_Page en 1.0 8533729872.0
0.0 Royal_Rumble_(2016) en 1.0 8465848.0
0.0 Main_Page en 1.0 8533729872.0
0.0 Main_Page en 1.0 8533729872.0
0.0 Eternity_II_puzzle en 1.0 41705811.0
0.0 Quantico_(TV_series) en 1.0 20830380.0
0.0 Bombardier_CRJ200 en 1.0 8477013.0
0.0 Main_Page en 1.0 8533729872.0
0.0 Main_Page en 1.0 8533729872.0
0.0 Main_Page en 1.0 8533729872.0
0.0 wiki//en.wikisource.org/wiki/special:search/wiki/w/index.php en 1.0 3773922.0
0.0 Main_Page en 1.0 8533729872.0
0.0 Main_Page en 1.0 8533729872.0
0.0 Main_Page en 1.0 8533729872.0
0.0 World_population en 1.0 38939636.0
0.0 Special:UserLogin en 1.0 1047123130.0
0.0 Main_Page en 1.0 8533729872.0
0.0 Main_Page en 1.0 8533729872.0
0.0 Main_Page en 1.0 8533729872.0
0.0 Main_Page en 1.0 8533729872.0
0.0 Special:Search en 1.0 108047570.0
0.0 Java_(programming_language) en 1.0 9701848.0
0.0 Main_Page en 1.0 8533729872.0
0.0 Main_Page en 1.0 8533729872.0
0.0 Main_Page en 1.0 8533729872.0
0.0 Main_Page en 1.0 8533729872.0
0.0 Special:BlankPage en 1.0 942340592.0
0.0 Main_Page en 1.0 8533729872.0
0.0 Main_Page en 1.0 8533729872.0
0.0 Main_Page en 1.0 8533729872.0
0.0 American_Horror_Story en 1.0 14443543.0
0.0 Star_Wars_Episode_II:_Attack_of_the_Clones en 1.0 12268475.0
0.0 Albania en 1.0 16889136.0
0.0 Main_Page en 1.0 8533729872.0
0.0 Vernacular en 1.0 5614193.0
0.0 Main_Page en 1.0 8533729872.0
0.0 Bhutan en 1.0 17680969.0
0.0 Chichijima_incident en 1.0 156777745.0
0.0 Greenland en 1.0 13780209.0
0.0 San_Francisco en 1.0 24450779.0
0.0 Main_Page en 1.0 8533729872.0
0.0 Wikipedia:Articles_for_creation en 1.0 3516766.0
0.0 Main_Page en 1.0 8533729872.0
0.0 Main_Page en 1.0 8533729872.0
0.0 Wolfgang_Amadeus_Mozart en 1.0 9201678.0
0.0 Main_Page en 1.0 8533729872.0
0.0 Main_Page en 1.0 8533729872.0
0.0 Main_Page en 1.0 8533729872.0
0.0 Main_Page en 1.0 8533729872.0
0.0 wiki/wiki/special:search/wiki/w/index.php en 1.0 3482045.0
0.0 Steven_Avery en 1.0 25258095.0
0.0 Special:BlankPage en 1.0 942340592.0
0.0 HTTPS en 1.0 116491638.0
0.0 Ku_Klux_Klan en 1.0 10391499.0
0.0 Main_Page en 1.0 8533729872.0
0.0 Main_Page en 1.0 8533729872.0
0.0 Demat_account en 1.0 174061131.0
0.0 Main_Page en 1.0 8533729872.0
0.0 Demat_account en 1.0 174061131.0
0.0 Main_Page en 1.0 8533729872.0
0.0 Main_Page en 1.0 8533729872.0
0.0 Ken_Griffey_Jr. en 1.0 22143154.0
0.0 Main_Page en 1.0 8533729872.0
0.0 Main_Page en 1.0 8533729872.0
0.0 Madonna_(entertainer) en 1.0 52602548.0
0.0 Main_Page en 1.0 8533729872.0
0.0 Main_Page en 1.0 8533729872.0
0.0 Special:UserLogin en 1.0 1047123130.0
0.0 The_Big_Bang_Theory_(season_9) en 1.0 19663753.0
0.0 Main_Page en 1.0 8533729872.0
0.0 Main_Page en 1.0 8533729872.0
0.0 Portal:Science en 1.0 3545973.0
0.0 Special:UserLogin en 1.0 1047123130.0
0.0 Christopher_Reeve en 1.0 20256261.0
0.0 Bikini en 1.0 177244701.0
0.0 The_Sword_of_Shannara_Trilogy en 1.0 2653919.0
0.0 Demat_account en 1.0 174061131.0
0.0 Main_Page en 1.0 8533729872.0
0.0 Yoshio_Tachibana en 1.0 5473637.0
0.0 Main_Page en 1.0 8533729872.0
0.0 Main_Page en 1.0 8533729872.0
0.0 Main_Page en 1.0 8533729872.0
0.0 List_of_Miss_Universe_titleholders en 1.0 5086606.0
0.0 It%27s_Always_Sunny_in_Philadelphia en 1.0 6195078.0
0.0 Main_Page en 1.0 8533729872.0
0.0 Special:UserLogin en 1.0 1047123130.0
0.0 Special:BlankPage en 1.0 942340592.0
0.0 Main_Page en 1.0 8533729872.0
0.0 Main_Page en 1.0 8533729872.0
0.0 Main_Page en 1.0 8533729872.0
0.0 Airbus_A380 en 1.0 13770443.0
0.0 Special:Search en 1.0 108047570.0
0.0 Special:BlankPage en 1.0 942340592.0
0.0 Main_Page en 1.0 8533729872.0
0.0 Main_Page en 1.0 8533729872.0
0.0 25_(Adele_album) en 1.0 22071883.0
0.0 Daisy_Ridley en 1.0 12796791.0
0.0 Main_Page en 1.0 8533729872.0
0.0 Main_Page en 1.0 8533729872.0
0.0 Special:BlankPage en 1.0 942340592.0
0.0 Warren_Buffett en 1.0 10249897.0
0.0 Chichijima_incident en 1.0 156777745.0
0.0 Main_Page en 1.0 8533729872.0
0.0 Main_Page en 1.0 8533729872.0
0.0 Family_Guy en 1.0 11600425.0
0.0 The_Pirate_Bay en 1.0 17082002.0
0.0 Special:BlankPage en 1.0 942340592.0
0.0 Nimr_al-Nimr en 1.0 31679231.0
0.0 Special:UserLogin en 1.0 1047123130.0
0.0 Special:UserLogin en 1.0 1047123130.0
0.0 Snoop_Dogg en 1.0 9936035.0
0.0 Main_Page en 1.0 8533729872.0
0.0 Special:BlankPage en 1.0 942340592.0
0.0 Main_Page en 1.0 8533729872.0
0.0 Main_Page en 1.0 8533729872.0
0.0 Special:UserLogin en 1.0 1047123130.0
0.0 Whiddy_Island_Disaster en 1.0 8423122.0
0.0 Main_Page en 1.0 8533729872.0
0.0 Main_Page en 1.0 8533729872.0
0.0 Main_Page en 1.0 8533729872.0
0.0 File:Evander_Holyfield_LA_2011.jpg en 1.0 175595651.0
0.0 File:Donald_August_19_(cropped).jpg en 1.0 16354475.0
0.0 Main_Page en 1.0 8533729872.0
0.0 Deaths_in_2016 en 1.0 53894002.0
0.0 File:Charlie_Hebdo_logo.svg en 1.0 12336839.0
0.0 Rogue_One:_A_Star_Wars_Story en 1.0 3528963.0
0.0 Main_Page en 1.0 8533729872.0
0.0 Special:Search en 1.0 108047570.0
0.0 Mydala en 1.0 30562.0
0.0 Main_Page en 1.0 8533729872.0
0.0 Special:BlankPage en 1.0 942340592.0
0.0 Main_Page en 1.0 8533729872.0
0.0 Main_Page en 1.0 8533729872.0
0.0 Darth_Vader en 1.0 14577040.0
0.0 Main_Page en 1.0 8533729872.0
0.0 Main_Page en 1.0 8533729872.0
0.0 Special:UserLogin en 1.0 1047123130.0
0.0 Main_Page en 1.0 8533729872.0
0.0 Main_Page en 1.0 8533729872.0
0.0 Main_Page en 1.0 8533729872.0
0.0 Main_Page en 1.0 8533729872.0
0.0 Main_Page en 1.0 8533729872.0
0.0 Main_Page en 1.0 8533729872.0
0.0 Special:HideBanners en 1.0 0.0
0.0 Main_Page en 1.0 8533729872.0
0.0 Main_Page en 1.0 8533729872.0
0.0 Bruce_Kingsbury en 1.0 16659828.0
0.0 Main_Page en 1.0 8533729872.0
0.0 Main_Page en 1.0 8533729872.0
0.0 List_of_Bollywood_films_of_2016 en 1.0 28421096.0
0.0 Main_Page en 1.0 8533729872.0
0.0 List_of_WWE_personnel en 1.0 11304219.0
0.0 Main_Page en 1.0 8533729872.0
0.0 Main_Page en 1.0 8533729872.0
0.0 Main_Page en 1.0 8533729872.0
0.0 Main_Page en 1.0 8533729872.0
0.0 Chichijima_incident en 1.0 156777745.0
0.0 Chichijima_incident en 1.0 156777745.0
0.0 Main_Page en 1.0 8533729872.0
0.0 Main_Page en 1.0 8533729872.0
0.0 Main_Page en 1.0 8533729872.0
0.0 Eternity_II_puzzle en 1.0 41705811.0
0.0 Web_scraping en 1.0 28358326.0
0.0 The_5th_Wave_(film) en 1.0 3108941.0
0.0 Taylor_Swift en 1.0 73911240.0
0.0 Special:BlankPage en 1.0 942340592.0
0.0 Main_Page en 1.0 8533729872.0
0.0 La7 en 1.0 7941046.0
0.0 File:Evander_Holyfield_LA_2011.jpg en 1.0 175595651.0
0.0 Wikipedia:Contact_us en 1.0 3685831.0
0.0 Demat_account en 1.0 174061131.0
0.0 Main_Page en 1.0 8533729872.0
0.0 Special:BlankPage en 1.0 942340592.0
0.0 Main_Page en 1.0 8533729872.0
0.0 Special:Search en 1.0 108047570.0
0.0 Facebook en 1.0 118029963.0
0.0 Main_Page en 1.0 8533729872.0
0.0 Main_Page en 1.0 8533729872.0
0.0 Special:UserLogin en 1.0 1047123130.0
0.0 Erosion en 1.0 4186756.0
0.0 Computer_font en 1.0 20765.0
0.0 Main_Page en 1.0 8533729872.0
0.0 Magma_chamber en 1.0 987128.0
0.0 Main_Page en 1.0 8533729872.0
0.0 Lost_(TV_series) en 1.0 14889087.0
0.0 List_of_Tamil_films_of_2016 en 1.0 4712062.0
0.0 Dakar_Rally en 1.0 5974583.0
0.0 Lion en 1.0 15999916.0
0.0 Keanu_Reeves en 1.0 7135572.0
0.0 Main_Page en 1.0 8533729872.0
0.0 Special:UserLogin en 1.0 1047123130.0
0.0 Special:BlankPage en 1.0 942340592.0
0.0 Main_Page en 1.0 8533729872.0
0.0 Main_Page en 1.0 8533729872.0
0.0 Special:UserLogin en 1.0 1047123130.0
0.0 Main_Page en 1.0 8533729872.0
0.0 Main_Page en 1.0 8533729872.0
0.0 Special:UserLogin en 1.0 1047123130.0
0.0 African_Footballer_of_the_Year en 1.0 6275781.0
0.0 Main_Page en 1.0 8533729872.0
0.0 Main_Page en 1.0 8533729872.0
0.0 Steven_Avery en 1.0 25258095.0
0.0 National_Rifle_Association en 1.0 8633132.0
0.0 Special:UserLogin en 1.0 1047123130.0
0.0 Main_Page en 1.0 8533729872.0
0.0 wiki//en.wikiversity.org/wiki/special:search/wiki/w/index.php en 1.0 3642944.0
0.0 Main_Page en 1.0 8533729872.0
0.0 Main_Page en 1.0 8533729872.0
0.0 Demat_account en 1.0 174061131.0
0.0 German_Moreno en 1.0 14611541.0
0.0 Main_Page en 1.0 8533729872.0
0.0 Main_Page en 1.0 8533729872.0
0.0 Chichijima_incident en 1.0 156777745.0
0.0 Special:UserLogin en 1.0 1047123130.0
0.0 Main_Page en 1.0 8533729872.0
0.0 Main_Page en 1.0 8533729872.0
0.0 Main_Page en 1.0 8533729872.0
0.0 Dave_Franco en 1.0 2217357.0
0.0 Trypophobia en 1.0 1498252.0
0.0 Main_Page en 1.0 8533729872.0
0.0 Special:BlankPage en 1.0 942340592.0
0.0 Model%E2%80%93view%E2%80%93controller en 1.0 2135270.0
0.0 List_of_Brooklyn_Nine-Nine_episodes en 1.0 6158342.0
0.0 Ewan_McGregor en 1.0 8094221.0
0.0 Steven_Avery en 1.0 25258095.0
0.0 Main_Page en 1.0 8533729872.0
0.0 Main_Page en 1.0 8533729872.0
0.0 Pan_(2015_film) en 1.0 4360315.0
0.0 Special:BlankPage en 1.0 942340592.0
0.0 Main_Page en 1.0 8533729872.0
0.0 Main_Page en 1.0 8533729872.0
0.0 List_of_countries_by_GDP_(nominal)_per_capita en 1.0 7663105.0
0.0 Help:IPA_for_English en 1.0 11944409.0
0.0 Main_Page en 1.0 8533729872.0
0.0 Main_Page en 1.0 8533729872.0
0.0 Special:UserLogin en 1.0 1047123130.0
0.0 2016_ICC_World_Twenty20 en 1.0 3138680.0
0.0 Bikini en 1.0 177244701.0
0.0 Main_Page en 1.0 8533729872.0
0.0 Main_Page en 1.0 8533729872.0
0.0 File:Vinny_Lecavalier_2007.jpg en 1.0 4611230.0
0.0 Main_Page en 1.0 8533729872.0
0.0 Main_Page en 1.0 8533729872.0
0.0 Main_Page en 1.0 8533729872.0
0.0 Main_Page en 1.0 8533729872.0
0.0 On_Writing en 1.0 5497785.0
0.0 wiki//www.wikidata.org/wiki/special:search/wiki/w/index.php en 1.0 3767231.0
0.0 Main_Page en 1.0 8533729872.0
0.0 Special:BlankPage en 1.0 942340592.0
0.0 wiki//en.wikivoyage.org/wiki/special:search/wiki/w/index.php en 1.0 4104638.0
0.0 Main_Page en 1.0 8533729872.0
0.0 .rss en 1.0 49554765.0
0.0 Main_Page en 1.0 8533729872.0
0.0 Main_Page en 1.0 8533729872.0
0.0 Main_Page en 1.0 8533729872.0
0.0 The_Conjuring_2:_The_Enfield_Poltergeist en 1.0 7636366.0
0.0 Main_Page en 1.0 8533729872.0
0.0 Special:BlankPage en 1.0 942340592.0
0.0 Main_Page en 1.0 8533729872.0
0.0 Main_Page en 1.0 8533729872.0
0.0 Main_Page en 1.0 8533729872.0
0.0 Main_Page en 1.0 8533729872.0
0.0 Emma_Stone en 1.0 6425879.0
0.0 Main_Page en 1.0 8533729872.0
0.0 Main_Page en 1.0 8533729872.0
0.0 Main_Page en 1.0 8533729872.0
0.0 Main_Page en 1.0 8533729872.0
0.0 Star_Wars:_The_Force_Awakens en 1.0 360319666.0
0.0 Main_Page en 1.0 8533729872.0
0.0 Main_Page en 1.0 8533729872.0
0.0 Chichijima_incident en 1.0 156777745.0
0.0 Main_Page en 1.0 8533729872.0
0.0 Special:UserLogin en 1.0 1047123130.0
0.0 Special:UserLogin en 1.0 1047123130.0
0.0 Main_Page en 1.0 8533729872.0
0.0 Main_Page en 1.0 8533729872.0
0.0 Main_Page en 1.0 8533729872.0
0.0 Everest_(2015_film) en 1.0 5027817.0
0.0 Main_Page en 1.0 8533729872.0
0.0 Main_Page en 1.0 8533729872.0
0.0 Main_Page en 1.0 8533729872.0
0.0 Special:UserLogin en 1.0 1047123130.0
0.0 Special:Search en 1.0 108047570.0
0.0 Special:UserLogin en 1.0 1047123130.0
0.0 Special:UserLogin en 1.0 1047123130.0
0.0 Main_Page en 1.0 8533729872.0
0.0 Eternity_II_puzzle en 1.0 41705811.0
0.0 Aziz_Ansari en 1.0 3297795.0
0.0 Main_Page en 1.0 8533729872.0
0.0 /en.wikiversity.org/wiki//en.wikipedia.org/w/index.php en 1.0 7537370.0
0.0 Demat_account en 1.0 174061131.0
0.0 Knight_of_Cups_(film) en 1.0 2428347.0
0.0 File:Evander_Holyfield_LA_2011.jpg en 1.0 175595651.0
0.0 Special:BlankPage en 1.0 942340592.0
0.0 Zayn_Malik en 1.0 14768160.0
0.0 Main_Page en 1.0 8533729872.0
0.0 Main_Page en 1.0 8533729872.0
0.0 Special:UserLogin en 1.0 1047123130.0
0.0 Main_Page en 1.0 8533729872.0
0.0 RAID en 1.0 4145078.0
0.0 Chichijima_incident en 1.0 156777745.0
0.0 Main_Page en 1.0 8533729872.0
0.0 Chichijima_incident en 1.0 156777745.0
0.0 The_Revenant_(2015_film) en 1.0 59359352.0
0.0 List_of_Bones_episodes en 1.0 7043876.0
0.0 Myanmar en 1.0 34438267.0
0.0 Special:BlankPage en 1.0 942340592.0
0.0 File:Evander_Holyfield_LA_2011.jpg en 1.0 175595651.0
0.0 Japan en 1.0 106603655.0
0.0 Main_Page en 1.0 8533729872.0
0.0 Main_Page en 1.0 8533729872.0
0.0 Climatic_Research_Unit_email_controversy en 1.0 1203492.0
0.0 Main_Page en 1.0 8533729872.0
0.0 Wazir_(film) en 1.0 28376882.0
0.0 Special:BlankPage en 1.0 942340592.0
0.0 Florida_Gators_football en 1.0 15905156.0
0.0 George_H._W._Bush en 1.0 221410448.0
0.0 Main_Page en 1.0 8533729872.0
0.0 Java_(programming_language) en 1.0 9701848.0
0.0 Will_Smith en 1.0 6891323.0
0.0 List_of_Bollywood_films_of_2016 en 1.0 28421096.0
0.0 Apocalypse_(comics) en 1.0 4842218.0
0.0 Main_Page en 1.0 8533729872.0
0.0 List_of_Bollywood_films_of_2016 en 1.0 28421096.0
0.0 Kendall_Jenner en 1.0 8775937.0
0.0 Main_Page en 1.0 8533729872.0
0.0 Philippine_presidential_election,_2016 en 1.0 5719828.0
0.0 Main_Page en 1.0 8533729872.0
0.0 Mehbooba_Mufti en 1.0 4655458.0
0.0 United_States_Constitution en 1.0 13196176.0
0.0 Main_Page en 1.0 8533729872.0
0.0 Deaths_in_2016 en 1.0 53894002.0
0.0 Kitty_Kallen en 1.0 3037680.0
0.0 Special:UserLogin en 1.0 1047123130.0
0.0 Corrupted_Blood_incident en 1.0 20892406.0
0.0 List_of_Bollywood_films_of_2016 en 1.0 28421096.0
0.0 Star_Wars:_The_Force_Awakens en 1.0 360319666.0
0.0 Main_Page en 1.0 8533729872.0
0.0 Main_Page en 1.0 8533729872.0
0.0 Main_Page en 1.0 8533729872.0
0.0 Main_Page en 1.0 8533729872.0
0.0 Main_Page en 1.0 8533729872.0
0.0 Main_Page en 1.0 8533729872.0
0.0 Domhnall_Gleeson en 1.0 6110724.0
0.0 Main_Page en 1.0 8533729872.0
0.0 File:M._Night_Shyamalan_2008_-_still_40580_crop.jpg en 1.0 3219480.0
0.0 Main_Page en 1.0 8533729872.0
0.0 Main_Page en 1.0 8533729872.0
0.0 Special:UserLogin en 1.0 1047123130.0
0.0 Making_a_Murderer en 1.0 33144160.0
0.0 Main_Page en 1.0 8533729872.0
0.0 File:Death_angel_saunaopenair2010.jpg en 1.0 4335364.0
0.0 Web_scraping en 1.0 28358326.0
0.0 Conor_McGregor en 1.0 18563582.0
0.0 Main_Page en 1.0 8533729872.0
0.0 George_H._W._Bush_vomiting_incident en 1.0 14363364.0
0.0 Main_Page en 1.0 8533729872.0
0.0 Main_Page en 1.0 8533729872.0
0.0 Main_Page en 1.0 8533729872.0
0.0 Main_Page en 1.0 8533729872.0
0.0 Main_Page en 1.0 8533729872.0
0.0 Dhanush en 1.0 2561331.0
0.0 Los_Angeles_FC en 1.0 6978453.0
0.0 The_Empire_Strikes_Back en 1.0 16437818.0
0.0 Main_Page en 1.0 8533729872.0
0.0 Steven_Avery en 1.0 25258095.0
0.0 Main_Page en 1.0 8533729872.0
0.0 Main_Page en 1.0 8533729872.0
0.0 Main_Page en 1.0 8533729872.0
0.0 Special:Search en 1.0 108047570.0
0.0 Special:Watchlist en 1.0 76035929.0
0.0 Special:BlankPage en 1.0 942340592.0
0.0 Main_Page en 1.0 8533729872.0
0.0 Main_Page en 1.0 8533729872.0
0.0 File:Golden_Globe_Trophy.jpg en 1.0 9956097.0
0.0 Main_Page en 1.0 8533729872.0
0.0 Main_Page en 1.0 8533729872.0
0.0 Main_Page en 1.0 8533729872.0
0.0 Chichijima_incident en 1.0 156777745.0
0.0 Special:Search en 1.0 108047570.0
0.0 Main_Page en 1.0 8533729872.0
0.0 Main_Page en 1.0 8533729872.0
0.0 Special:Search en 1.0 108047570.0
0.0 Academy_Award_for_Best_Picture en 1.0 9993242.0
0.0 The_Fast_and_the_Furious en 1.0 5554014.0
0.0 Special:BlankPage en 1.0 942340592.0
0.0 Main_Page en 1.0 8533729872.0
0.0 Special:UserLogin en 1.0 1047123130.0
0.0 Qatar en 1.0 28278349.0
0.0 Facebook en 1.0 118029963.0
0.0 Main_Page en 1.0 8533729872.0
0.0 Main_Page en 1.0 8533729872.0
0.0 Special:BlankPage en 1.0 942340592.0
0.0 Main_Page en 1.0 8533729872.0
0.0 Special:UserLogin en 1.0 1047123130.0
0.0 Main_Page en 1.0 8533729872.0
0.0 Pathankot_Air_Force_Station en 1.0 2151346.0
0.0 Special:BlankPage en 1.0 942340592.0
0.0 Main_Page en 1.0 8533729872.0
0.0 Saudi_Aramco en 1.0 6901052.0
0.0 Main_Page en 1.0 8533729872.0
0.0 File:BMW-HQ.jpg en 1.0 3049375.0
0.0 Special:BlankPage en 1.0 942340592.0
0.0 Bill_Cosby en 1.0 16561271.0
0.0 Rogue_One en 1.0 8428262.0
0.0 Joy_(film) en 1.0 13022270.0
0.0 Main_Page en 1.0 8533729872.0
0.0 Main_Page en 1.0 8533729872.0
0.0 Main_Page en 1.0 8533729872.0
0.0 Main_Page en 1.0 8533729872.0
0.0 Main_Page en 1.0 8533729872.0
0.0 Star_Wars_(film) en 1.0 43034795.0
0.0 Special:Search en 1.0 108047570.0
0.0 Michael_B._Jordan en 1.0 3752925.0
0.0 Main_Page en 1.0 8533729872.0
0.0 Main_Page en 1.0 8533729872.0
0.0 Main_Page en 1.0 8533729872.0
0.0 Demat_account en 1.0 174061131.0
0.0 Special:BlankPage en 1.0 942340592.0
0.0 Main_Page en 1.0 8533729872.0
0.0 List_of_Doctor_Who_serials en 1.0 10829901.0
0.0 Syrian_Civil_War en 1.0 124670979.0
0.0 Main_Page en 1.0 8533729872.0
0.0 Special:Search en 1.0 108047570.0
0.0 The_Mummy:_Tomb_of_the_Dragon_Emperor en 1.0 4012950.0
0.0 Main_Page en 1.0 8533729872.0
0.0 File:Evander_Holyfield_LA_2011.jpg en 1.0 175595651.0
0.0 Japan en 1.0 106603655.0
0.0 Main_Page en 1.0 8533729872.0
0.0 Main_Page en 1.0 8533729872.0
0.0 Main_Page en 1.0 8533729872.0
0.0 Korean_Demilitarized_Zone en 1.0 3914196.0
0.0 Special:BlankPage en 1.0 942340592.0
0.0 Point_Break_(2015_film) en 1.0 8451561.0
0.0 Powerball en 1.0 6645640.0
0.0 Main_Page en 1.0 8533729872.0
0.0 Pannenkoek en 1.0 0.0
0.0 Special:UserLogin en 1.0 1047123130.0
0.0 Special:UserLogin en 1.0 1047123130.0
0.0 Main_Page en 1.0 8533729872.0
0.0 Main_Page en 1.0 8533729872.0
0.0 Elizabeth_I_of_England en 1.0 10985050.0
0.0 Special:BlankPage en 1.0 942340592.0
0.0 Agents_of_S.H.I.E.L.D._(season_3) en 1.0 7021514.0
0.0 Special:BlankPage en 1.0 942340592.0
0.0 Minions_(film) en 1.0 6970074.0
0.0 Main_Page en 1.0 8533729872.0
0.0 Main_Page en 1.0 8533729872.0
0.0 Main_Page en 1.0 8533729872.0
0.0 Main_Page en 1.0 8533729872.0
0.0 Main_Page en 1.0 8533729872.0
0.0 Bridge_of_Spies_(film) en 1.0 8425123.0
0.0 Main_Page en 1.0 8533729872.0
0.0 Main_Page en 1.0 8533729872.0
0.0 Special:UserLogin en 1.0 1047123130.0
0.0 List_of_countries_by_GDP_(PPP) en 1.0 7003928.0
0.0 Main_Page en 1.0 8533729872.0
0.0 Main_Page en 1.0 8533729872.0
0.0 Main_Page en 1.0 8533729872.0
0.0 Main_Page en 1.0 8533729872.0
0.0 Main_Page en 1.0 8533729872.0
0.0 Main_Page en 1.0 8533729872.0
0.0 Special:BlankPage en 1.0 942340592.0
0.0 Web_scraping en 1.0 28358326.0
0.0 Main_Page en 1.0 8533729872.0
0.0 Main_Page en 1.0 8533729872.0
0.0 World_population en 1.0 38939636.0
0.0 Main_Page en 1.0 8533729872.0
0.0 Main_Page en 1.0 8533729872.0
0.0 Main_Page en 1.0 8533729872.0
0.0 Special:BlankPage en 1.0 942340592.0
0.0 Buddy_Foster en 1.0 660294.0
0.0 Main_Page en 1.0 8533729872.0
0.0 Main_Page en 1.0 8533729872.0
0.0 Battle_of_New_Orleans en 1.0 37927987.0
0.0 The_Walking_Dead_(season_6) en 1.0 9378246.0
0.0 Main_Page en 1.0 8533729872.0
0.0 PCI_Express en 1.0 5551632.0
0.0 French_Revolution en 1.0 13211428.0
0.0 Main_Page en 1.0 8533729872.0
0.0 Special:BlankPage en 1.0 942340592.0
0.0 Main_Page en 1.0 8533729872.0
0.0 Special:Search en 1.0 108047570.0
0.0 Demat_account en 1.0 174061131.0
0.0 Spider_silk en 1.0 28220925.0
0.0 Main_Page en 1.0 8533729872.0
0.0 Special:UserLogin en 1.0 1047123130.0
0.0 Special:BlankPage en 1.0 942340592.0
0.0 Chichijima_incident en 1.0 156777745.0
0.0 Special:UserLogin en 1.0 1047123130.0
0.0 File:MSC_2014_Blair_Mueller_MSC2014_(cropped).jpg en 1.0 4137176.0
0.0 Main_Page en 1.0 8533729872.0
0.0 Main_Page en 1.0 8533729872.0
0.0 Special:BlankPage en 1.0 942340592.0
0.0 Main_Page en 1.0 8533729872.0
0.0 Keira_Knightley en 1.0 9450818.0
0.0 Main_Page en 1.0 8533729872.0
0.0 Special:BlankPage en 1.0 942340592.0
0.0 Main_Page en 1.0 8533729872.0
0.0 2016_North_Korean_nuclear_test en 1.0 27136680.0
0.0 Special:BlankPage en 1.0 942340592.0
0.0 Main_Page en 1.0 8533729872.0
0.0 Main_Page en 1.0 8533729872.0
0.0 Mumbai en 1.0 32487914.0
0.0 Main_Page en 1.0 8533729872.0
0.0 Special:BlankPage en 1.0 942340592.0
0.0 Jenna_Dewan en 1.0 24310477.0
0.0 Main_Page en 1.0 8533729872.0
0.0 Main_Page en 1.0 8533729872.0
0.0 Web_scraping en 1.0 28358326.0
0.0 Main_Page en 1.0 8533729872.0
0.0 Main_Page en 1.0 8533729872.0
0.0 Special:BlankPage en 1.0 942340592.0
0.0 Main_Page en 1.0 8533729872.0
0.0 Main_Page en 1.0 8533729872.0
0.0 Special:BlankPage en 1.0 942340592.0
0.0 Main_Page en 1.0 8533729872.0
0.0 Main_Page en 1.0 8533729872.0
0.0 File:Ian_Waite_and_Kristina_Rihanoff_(8416869913).jpg en 1.0 1887935.0
0.0 Special:UserLogin en 1.0 1047123130.0
0.0 Adidas en 1.0 6164108.0
0.0 Special:Search en 1.0 108047570.0
0.0 Venezuela en 1.0 14900422.0
0.0 Irrfan_Khan en 1.0 4734938.0
0.0 Main_Page en 1.0 8533729872.0
0.0 Main_Page en 1.0 8533729872.0
0.0 United_States en 1.0 177805436.0
0.0 Special:UserLogin en 1.0 1047123130.0
0.0 Sherlock_(TV_series) en 1.0 46371239.0
0.0 List_of_Steven_Universe_episodes en 1.0 46549233.0
0.0 Cambodia en 1.0 17729988.0
0.0 Deaths_in_2016 en 1.0 53894002.0
0.0 The_Hateful_Eight en 1.0 37973477.0
0.0 Main_Page en 1.0 8533729872.0
0.0 Main_Page en 1.0 8533729872.0
0.0 Canon en 1.0 1533747.0
0.0 Main_Page en 1.0 8533729872.0
0.0 Special:BlankPage en 1.0 942340592.0
0.0 Main_Page en 1.0 8533729872.0
0.0 Special:Search en 1.0 108047570.0
0.0 Main_Page en 1.0 8533729872.0
0.0 Special:UserLogin en 1.0 1047123130.0
0.0 Donald_Trump en 1.0 115639487.0
0.0 Main_Page en 1.0 8533729872.0
0.0 Main_Page en 1.0 8533729872.0
0.0 Gini_coefficient en 1.0 6951027.0
0.0 Main_Page en 1.0 8533729872.0
0.0 Main_Page en 1.0 8533729872.0
0.0 Main_Page en 1.0 8533729872.0
0.0 Main_Page en 1.0 8533729872.0
0.0 Special:Search en 1.0 108047570.0
0.0 House_of_Cards_(U.S._TV_series) en 1.0 19951905.0
0.0 Main_Page en 1.0 8533729872.0
0.0 Main_Page en 1.0 8533729872.0
0.0 Kim_Jong-un en 1.0 55847144.0
0.0 Chichijima_incident en 1.0 156777745.0
0.0 Main_Page en 1.0 8533729872.0
0.0 Main_Page en 1.0 8533729872.0
0.0 Main_Page en 1.0 8533729872.0
0.0 Islamic_State_of_Iraq_and_the_Levant en 1.0 148719214.0
0.0 ISO_8601 en 1.0 5051466.0
0.0 Main_Page en 1.0 8533729872.0
0.0 Nana_Patekar en 1.0 2905561.0
0.0 Special:UserLogin en 1.0 1047123130.0
0.0 Portal:Featured_content en 1.0 4866489.0
0.0 Marilyn_Monroe en 1.0 13334640.0
0.0 Main_Page en 1.0 8533729872.0
0.0 Main_Page en 1.0 8533729872.0
0.0 Indian_elephant en 1.0 16392746.0
0.0 Saudi_Arabia en 1.0 64695489.0
0.0 Special:BlankPage en 1.0 942340592.0
0.0 Tor_(anonymity_network) en 1.0 9634370.0
0.0 Web_scraping en 1.0 28358326.0
0.0 Special:BlankPage en 1.0 942340592.0
0.0 Dagashi_Kashi en 1.0 2679127.0
0.0 Main_Page en 1.0 8533729872.0
0.0 Barack_obama en 1.0 255717473.0
0.0 Main_Page en 1.0 8533729872.0
0.0 Main_Page en 1.0 8533729872.0
0.0 Demat_account en 1.0 174061131.0
0.0 Main_Page en 1.0 8533729872.0
0.0 Captain_America en 1.0 8523828.0
0.0 Special:UserLogin en 1.0 1047123130.0
0.0 Benjamin_Franklin en 1.0 16687632.0
0.0 List_of_Bollywood_films_of_2016 en 1.0 28421096.0
0.0 Mozhan_Marn%C3%B2 en 1.0 539211.0
0.0 Digital_signage en 1.0 6482181.0
0.0 File:Evander_Holyfield_LA_2011.jpg en 1.0 175595651.0
0.0 Fifty_Shades_of_Black en 1.0 1482129.0
0.0 Special:Search en 1.0 108047570.0
0.0 Alvin_and_the_Chipmunks:_The_Road_Chip en 1.0 2913358.0
0.0 Main_Page en 1.0 8533729872.0
0.0 Main_Page en 1.0 8533729872.0
0.0 Main_Page en 1.0 8533729872.0
0.0 File:Shahrukh_interacts_with_media_after_KKR%27s_maiden_IPL_title.jpg en 1.0 1434660.0
0.0 Special:UserLogin en 1.0 1047123130.0
0.0 Demat_account en 1.0 174061131.0
0.0 Web_scraping en 1.0 28358326.0
0.0 Main_Page en 1.0 8533729872.0
0.0 Special:BlankPage en 1.0 942340592.0
0.0 President_of_the_United_States en 1.0 14761168.0
0.0 Star_Wars en 1.0 136598327.0
0.0 Main_Page en 1.0 8533729872.0
0.0 Main_Page en 1.0 8533729872.0
0.0 Main_Page en 1.0 8533729872.0
0.0 Emma_Roberts en 1.0 4426410.0
0.0 Main_Page en 1.0 8533729872.0
0.0 Main_Page en 1.0 8533729872.0
0.0 Main_Page en 1.0 8533729872.0
0.0 Web_scraping en 1.0 28358326.0
0.0 Main_Page en 1.0 8533729872.0
0.0 Main_Page en 1.0 8533729872.0
0.0 The_Beatles en 1.0 42930195.0
0.0 File:Evander_Holyfield_LA_2011.jpg en 1.0 175595651.0
0.0 Main_Page en 1.0 8533729872.0
0.0 Main_Page en 1.0 8533729872.0
0.0 Main_Page en 1.0 8533729872.0
0.0 Main_Page en 1.0 8533729872.0
0.0 Main_Page en 1.0 8533729872.0
0.0 wiki//en.wiktionary.org/wiki/special:search/wiki/w/index.php en 1.0 3746351.0
0.0 Special:BlankPage en 1.0 942340592.0
0.0 Patrick_Swayze en 1.0 3418572.0
0.0 Premam en 1.0 5100963.0
0.0 Main_Page en 1.0 8533729872.0
0.0 Main_Page en 1.0 8533729872.0
0.0 List_of_One_Piece_episodes en 1.0 24975180.0
0.0 Main_Page en 1.0 8533729872.0
0.0 Main_Page en 1.0 8533729872.0
0.0 Special:BlankPage en 1.0 942340592.0
0.0 Chichijima_incident en 1.0 156777745.0
0.0 Special:UserLogin en 1.0 1047123130.0
0.0 Star_Wars:_The_Force_Awakens en 1.0 360319666.0
0.0 Special:UserLogin en 1.0 1047123130.0
0.0 Mad_Max:_Fury_Road en 1.0 11052682.0
0.0 Main_Page en 1.0 8533729872.0
0.0 Main_Page en 1.0 8533729872.0
0.0 Main_Page en 1.0 8533729872.0
0.0 Dilwale_(2015_film) en 1.0 24935892.0
0.0 Main_Page en 1.0 8533729872.0
0.0 Main_Page en 1.0 8533729872.0
0.0 Luther_(TV_series) en 1.0 4051603.0
0.0 Main_Page en 1.0 8533729872.0
0.0 Special:UserLogin en 1.0 1047123130.0
0.0 Lip_Sync_Battle en 1.0 17720380.0
0.0 Main_Page en 1.0 8533729872.0
0.0 Main_Page en 1.0 8533729872.0
0.0 Main_Page en 1.0 8533729872.0
0.0 Facebook en 1.0 118029963.0
0.0 Main_Page en 1.0 8533729872.0
0.0 Main_Page en 1.0 8533729872.0
0.0 Main_Page en 1.0 8533729872.0
0.0 Main_Page en 1.0 8533729872.0
0.0 Main_Page en 1.0 8533729872.0
0.0 Main_Page en 1.0 8533729872.0
0.0 Web_scraping en 1.0 28358326.0
0.0 Main_Page en 1.0 8533729872.0
0.0 Main_Page en 1.0 8533729872.0
0.0 Special:BlankPage en 1.0 942340592.0
0.0 Main_Page en 1.0 8533729872.0
0.0 Main_Page en 1.0 8533729872.0
0.0 Main_Page en 1.0 8533729872.0
0.0 Main_Page en 1.0 8533729872.0
0.0 _ en 1.0 7237335.0
0.0 Main_Page en 1.0 8533729872.0
0.0 Heroes_Reborn_(miniseries) en 1.0 20334182.0
0.0 Roman_Reigns en 1.0 14657040.0
0.0 Main_Page en 1.0 8533729872.0
0.0 Main_Page en 1.0 8533729872.0
0.0 Sense8 en 1.0 7063588.0
0.0 Special:BlankPage en 1.0 942340592.0
0.0 Main_Page en 1.0 8533729872.0
0.0 Main_Page en 1.0 8533729872.0
0.0 Main_Page en 1.0 8533729872.0
0.0 Katy_Perry en 1.0 12551962.0
0.0 Main_Page en 1.0 8533729872.0
0.0 Main_Page en 1.0 8533729872.0
0.0 Main_Page en 1.0 8533729872.0
0.0 Special:UserLogin en 1.0 1047123130.0
0.0 Main_Page en 1.0 8533729872.0
0.0 Main_Page en 1.0 8533729872.0
0.0 Main_Page en 1.0 8533729872.0
0.0 PlayStation_4 en 1.0 7872190.0
0.0 Main_Page en 1.0 8533729872.0
0.0 Special:UserLogin en 1.0 1047123130.0
0.0 Main_Page en 1.0 8533729872.0
0.0 Special:Search en 1.0 108047570.0
0.0 Woody_Allen en 1.0 10250600.0
0.0 Main_Page en 1.0 8533729872.0
0.0 Special:BlankPage en 1.0 942340592.0
0.0 Main_Page en 1.0 8533729872.0
0.0 Main_Page en 1.0 8533729872.0
0.0 Special:BlankPage en 1.0 942340592.0
0.0 Main_Page en 1.0 8533729872.0
0.0 Main_Page en 1.0 8533729872.0
0.0 Main_Page en 1.0 8533729872.0
0.0 Kendrick_Lamar en 1.0 23697644.0
0.0 Main_Page en 1.0 8533729872.0
0.0 File:Donald_August_19_(cropped).jpg en 1.0 16354475.0
0.0 Portugal en 1.0 22169755.0
0.0 Special:BlankPage en 1.0 942340592.0
0.0 Star_Trek_Beyond en 1.0 3453871.0
0.0 Main_Page en 1.0 8533729872.0
0.0 DC_Universe_Animated_Original_Movies en 1.0 10568005.0
0.0 Azerbaijan en 1.0 33338195.0
0.0 Main_Page en 1.0 8533729872.0
0.0 Main_Page en 1.0 8533729872.0
0.0 Main_Page en 1.0 8533729872.0
0.0 List_of_Philadelphia_neighborhoods en 1.0 5372997.0
0.0 Making_a_Murderer en 1.0 33144160.0
0.0 Main_Page en 1.0 8533729872.0
0.0 Main_Page en 1.0 8533729872.0
0.0 Main_Page en 1.0 8533729872.0
0.0 Main_Page en 1.0 8533729872.0
0.0 Flush_toilet en 1.0 19101791.0
0.0 Main_Page en 1.0 8533729872.0
0.0 Demat_account en 1.0 174061131.0
0.0 Main_Page en 1.0 8533729872.0
0.0 Main_Page en 1.0 8533729872.0
0.0 Gun_violence_in_the_United_States en 1.0 8259694.0
0.0 Special:UserLogin en 1.0 1047123130.0
0.0 Java_(programming_language) en 1.0 9701848.0
0.0 Special:UserLogin en 1.0 1047123130.0
0.0 File:Evander_Holyfield_LA_2011.jpg en 1.0 175595651.0
0.0 Bill_Gates en 1.0 21760614.0
0.0 Special:BlankPage en 1.0 942340592.0
0.0 Main_Page en 1.0 8533729872.0
0.0 Democratic_Republic_of_the_Congo en 1.0 14760552.0
0.0 Main_Page en 1.0 8533729872.0
0.0 Chichijima_incident en 1.0 156777745.0
0.0 Main_Page en 1.0 8533729872.0
0.0 Main_Page en 1.0 8533729872.0
0.0 Main_Page en 1.0 8533729872.0
0.0 Main_Page en 1.0 8533729872.0
0.0 Stephen_Hawking en 1.0 40873878.0
0.0 List_of_Adventure_Time_episodes en 1.0 14274671.0
0.0 Special:UserLogin en 1.0 1047123130.0
0.0 Main_Page en 1.0 8533729872.0
0.0 Yoga en 1.0 13424579.0
0.0 Ivanka_Trump en 1.0 4053824.0
0.0 Special:UserLogin en 1.0 1047123130.0
0.0 Second_Amendment_to_the_United_States_Constitution en 1.0 31700186.0
0.0 Steven_Avery en 1.0 25258095.0
0.0 Special:Search en 1.0 108047570.0
0.0 Main_Page en 1.0 8533729872.0
0.0 Main_Page en 1.0 8533729872.0
0.0 Main_Page en 1.0 8533729872.0
0.0 Main_Page en 1.0 8533729872.0
0.0 Special:UserLogin en 1.0 1047123130.0
0.0 Main_Page en 1.0 8533729872.0
0.0 Special:BlankPage en 1.0 942340592.0
0.0 Much_Ado_About_Nothing en 1.0 40783320.0
0.0 Special:BlankPage en 1.0 942340592.0
0.0 Main_Page en 1.0 8533729872.0
0.0 Special:BlankPage en 1.0 942340592.0
0.0 Deadpool_(film) en 1.0 10061985.0
0.0 Special:BlankPage en 1.0 942340592.0
0.0 Special:UserLogin en 1.0 1047123130.0
0.0 Selena_Gomez en 1.0 21586062.0
0.0 Special:Search en 1.0 108047570.0
0.0 Rob_Schneider en 1.0 2395872.0
0.0 Main_Page en 1.0 8533729872.0
0.0 Main_Page en 1.0 8533729872.0
0.0 Chris_Evans_(actor) en 1.0 3305679.0
0.0 Main_Page en 1.0 8533729872.0
0.0 Special:UserLogin en 1.0 1047123130.0
0.0 Main_Page en 1.0 8533729872.0
0.0 Main_Page en 1.0 8533729872.0
0.0 Main_Page en 1.0 8533729872.0
0.0 Main_Page en 1.0 8533729872.0
0.0 Jallikattu en 1.0 9535280.0
0.0 Special:Search en 1.0 108047570.0
0.0 Special:UserLogin en 1.0 1047123130.0
0.0 Special:BlankPage en 1.0 942340592.0
0.0 Main_Page en 1.0 8533729872.0
0.0 Main_Page en 1.0 8533729872.0
0.0 Trainwreck_(film) en 1.0 4420455.0
0.0 index.html en 1.0 14152311.0
0.0 Main_Page en 1.0 8533729872.0
0.0 Main_Page en 1.0 8533729872.0
0.0 Main_Page en 1.0 8533729872.0
0.0 Main_Page en 1.0 8533729872.0
0.0 File:Evander_Holyfield_LA_2011.jpg en 1.0 175595651.0
0.0 Main_Page en 1.0 8533729872.0
0.0 Java_(programming_language) en 1.0 9701848.0
0.0 Main_Page en 1.0 8533729872.0
0.0 Main_Page en 1.0 8533729872.0
0.0 Angel_from_Hell en 1.0 7619050.0
0.0 Main_Page en 1.0 8533729872.0
0.0 Main_Page en 1.0 8533729872.0
0.0 Hillary_Clinton_presidential_campaign,_2016 en 1.0 1013768180.0
0.0 Main_Page en 1.0 8533729872.0
0.0 Main_Page en 1.0 8533729872.0
0.0 Main_Page en 1.0 8533729872.0
0.0 The_Big_Bang_Theory_(season_9) en 1.0 19663753.0
0.0 Main_Page en 1.0 8533729872.0
0.0 Corrupted_Blood_incident en 1.0 20892406.0
0.0 List_of_The_Blacklist_episodes en 1.0 14007009.0
0.0 Special:Search en 1.0 108047570.0
0.0 Main_Page en 1.0 8533729872.0
0.0 File:Evander_Holyfield_LA_2011.jpg en 1.0 175595651.0
0.0 Main_Page en 1.0 8533729872.0
0.0 Chichijima_incident en 1.0 156777745.0
0.0 Main_Page en 1.0 8533729872.0
0.0 Main_Page en 1.0 8533729872.0
0.0 Main_Page en 1.0 8533729872.0
0.0 Main_Page en 1.0 8533729872.0
0.0 Main_Page en 1.0 8533729872.0
0.0 Main_Page en 1.0 8533729872.0
0.0 Nicolas_Cage en 1.0 9425902.0
0.0 Main_Page en 1.0 8533729872.0
0.0 File:Charlie_Hebdo_logo.svg en 1.0 12336839.0
0.0 Sultan_(2016_film) en 1.0 1964273.0
0.0 Main_Page en 1.0 8533729872.0
0.0 Main_Page en 1.0 8533729872.0
0.0 Main_Page en 1.0 8533729872.0
0.0 Main_Page en 1.0 8533729872.0
0.0 Main_Page en 1.0 8533729872.0
0.0 Main_Page en 1.0 8533729872.0
0.0 The_Visit_(2015_film) en 1.0 2691605.0
0.0 Web_scraping en 1.0 28358326.0
0.0 Main_Page en 1.0 8533729872.0
0.0 Trevor_Noah en 1.0 3181850.0
0.0 Main_Page en 1.0 8533729872.0
0.0 Main_Page en 1.0 8533729872.0
0.0 Main_Page en 1.0 8533729872.0
0.0 Special:BlankPage en 1.0 942340592.0
0.0 Main_Page en 1.0 8533729872.0
0.0 Main_Page en 1.0 8533729872.0
0.0 Main_Page en 1.0 8533729872.0
0.0 Wiki en 1.0 25863464.0
0.0 Main_Page en 1.0 8533729872.0
0.0 Special:BlankPage en 1.0 942340592.0
0.0 Henry_VIII_of_England en 1.0 22240942.0
0.0 Barack_Obama en 1.0 187934080.0
0.0 Main_Page en 1.0 8533729872.0
0.0 Main_Page en 1.0 8533729872.0
0.0 Main_Page en 1.0 8533729872.0
0.0 Main_Page en 1.0 8533729872.0
0.0 Main_Page en 1.0 8533729872.0
0.0 Pancake en 1.0 995583.0
0.0 Kazakhstan en 1.0 18600857.0
0.0 Pyongyang en 1.0 7868705.0
0.0 Main_Page en 1.0 8533729872.0
0.0 Great_Expectations en 1.0 12305573.0
0.0 Main_Page en 1.0 8533729872.0
0.0 Special:BlankPage en 1.0 942340592.0
0.0 Accenture en 1.0 4431794.0
0.0 Main_Page en 1.0 8533729872.0
0.0 Main_Page en 1.0 8533729872.0
0.0 Main_Page en 1.0 8533729872.0
0.0 Java_(programming_language) en 1.0 9701848.0
0.0 Audie_Murphy en 1.0 13560285.0
0.0 Special:BlankPage en 1.0 942340592.0
0.0 National_Pension_Scheme en 1.0 1627305.0
0.0 Main_Page en 1.0 8533729872.0
0.0 Special:BlankPage en 1.0 942340592.0
0.0 Main_Page en 1.0 8533729872.0
0.0 Main_Page en 1.0 8533729872.0
0.0 Main_Page en 1.0 8533729872.0
0.0 Special:UserLogin en 1.0 1047123130.0
0.0 Special:UserLogin en 1.0 1047123130.0
0.0 Main_Page en 1.0 8533729872.0
0.0 Main_Page en 1.0 8533729872.0
0.0 Special:Search en 1.0 108047570.0
0.0 Main_Page en 1.0 8533729872.0
0.0 Main_Page en 1.0 8533729872.0
0.0 Special:UserLogin en 1.0 1047123130.0
0.0 Justin_Bieber en 1.0 29899369.0
0.0 Chichijima_incident en 1.0 156777745.0
0.0 Web_scraping en 1.0 28358326.0
0.0 Main_Page en 1.0 8533729872.0
0.0 January_8 en 1.0 50914427.0
0.0 Jenna_Dewan en 1.0 24310477.0
0.0 Special:UserLogin en 1.0 1047123130.0
0.0 Main_Page en 1.0 8533729872.0
0.0 Lycos en 1.0 10476017.0
0.0 Main_Page en 1.0 8533729872.0
0.0 Main_Page en 1.0 8533729872.0
0.0 Chichijima_incident en 1.0 156777745.0
0.0 Main_Page en 1.0 8533729872.0
0.0 Main_Page en 1.0 8533729872.0
0.0 Main_Page en 1.0 8533729872.0
0.0 Neymar en 1.0 9953093.0
0.0 Chicago_Med en 1.0 3087873.0
0.0 Special:UserLogin en 1.0 1047123130.0
0.0 Special:BlankPage en 1.0 942340592.0
0.0 Main_Page en 1.0 8533729872.0
0.0 Main_Page en 1.0 8533729872.0
0.0 Bradley_Cooper en 1.0 9645204.0
0.0 index.html en 1.0 14152311.0
0.0 Main_Page en 1.0 8533729872.0
0.0 Main_Page en 1.0 8533729872.0
0.0 Main_Page en 1.0 8533729872.0
0.0 2015_in_film en 1.0 110436486.0
0.0 Special:BlankPage en 1.0 942340592.0
0.0 Main_Page en 1.0 8533729872.0
0.0 Main_Page en 1.0 8533729872.0
0.0 Main_Page en 1.0 8533729872.0
0.0 Ivana_Baquero en 1.0 2290574.0
0.0 Main_Page en 1.0 8533729872.0
0.0 Main_Page en 1.0 8533729872.0
0.0 Main_Page en 1.0 8533729872.0
0.0 Main_Page en 1.0 8533729872.0
0.0 Forward_air_control_operations_during_the_Korean_War en 1.0 6697462.0
0.0 Main_Page en 1.0 8533729872.0
0.0 Main_Page en 1.0 8533729872.0
0.0 Main_Page en 1.0 8533729872.0
0.0 Main_Page en 1.0 8533729872.0
0.0 Main_Page en 1.0 8533729872.0
0.0 Main_Page en 1.0 8533729872.0
0.0 Croatia en 1.0 35674734.0
0.0 Main_Page en 1.0 8533729872.0
0.0 Main_Page en 1.0 8533729872.0
0.0 Space_Shuttle en 1.0 55779821.0
0.0 Main_Page en 1.0 8533729872.0
0.0 Main_Page en 1.0 8533729872.0
0.0 Special:UserLogin en 1.0 1047123130.0
0.0 Special:UserLogin en 1.0 1047123130.0
0.0 File:Golden_Globe_Trophy.jpg en 1.0 9956097.0
0.0 Sanam_Teri_Kasam_(2016_film) en 1.0 3707538.0
0.0 Special:BlankPage en 1.0 942340592.0
0.0 Aishwarya_Rai_Bachchan en 1.0 8216420.0
0.0 Dominick_Cruz en 1.0 2460172.0
0.0 Special:UserLogin en 1.0 1047123130.0
0.0 Concussion_(2015_film) en 1.0 3665754.0
0.0 The_100_(TV_series) en 1.0 5424874.0
0.0 Main_Page en 1.0 8533729872.0
0.0 Main_Page en 1.0 8533729872.0
0.0 Main_Page en 1.0 8533729872.0
0.0 Main_Page en 1.0 8533729872.0
0.0 Special:BlankPage en 1.0 942340592.0
0.0 Main_Page en 1.0 8533729872.0
0.0 List_of_The_Originals_episodes en 1.0 2508094.0
0.0 Main_Page en 1.0 8533729872.0
0.0 Solar_System en 1.0 17471550.0
0.0 Main_Page en 1.0 8533729872.0
0.0 Special:BlankPage en 1.0 942340592.0
0.0 List_of_highest-grossing_films en 1.0 167724226.0
0.0 WhatsApp en 1.0 7527447.0
0.0 Chichijima_incident en 1.0 156777745.0
0.0 Thermonuclear_weapon en 1.0 70269413.0
0.0 Main_Page en 1.0 8533729872.0
0.0 Main_Page en 1.0 8533729872.0
0.0 Special:UserLogin en 1.0 1047123130.0
0.0 Amber_Heard en 1.0 3656053.0
0.0 Main_Page en 1.0 8533729872.0
0.0 Main_Page en 1.0 8533729872.0
0.0 Chichijima_incident en 1.0 156777745.0
0.0 Deaths_in_2016 en 1.0 53894002.0
0.0 Financial_crisis_of_2007%E2%80%9308 en 1.0 14615587.0
0.0 Special:Watchlist en 1.0 76035929.0
0.0 Barack_obama en 1.0 255717473.0
0.0 Special:UserLogin en 1.0 1047123130.0
0.0 Bruce_Kingsbury en 1.0 16659828.0
0.0 Special:UserLogin en 1.0 1047123130.0
0.0 Main_Page en 1.0 8533729872.0
0.0 Main_Page en 1.0 8533729872.0
0.0 Main_Page en 1.0 8533729872.0
0.0 Gulf_War en 1.0 17006898.0
0.0 Main_Page en 1.0 8533729872.0
0.0 Main_Page en 1.0 8533729872.0
0.0 Web_scraping en 1.0 28358326.0
0.0 Special:UserLogin en 1.0 1047123130.0
0.0 Special:BlankPage en 1.0 942340592.0
0.0 Main_Page en 1.0 8533729872.0
0.0 George_H._W._Bush_vomiting_incident en 1.0 14363364.0
0.0 Special:BlankPage en 1.0 942340592.0
0.0 Fear_the_Walking_Dead en 1.0 4421914.0
0.0 Main_Page en 1.0 8533729872.0
0.0 Adam_Driver en 1.0 11421115.0
0.0 Main_Page en 1.0 8533729872.0
0.0 Christoph_Waltz en 1.0 5672234.0
0.0 The_Winds_of_Winter en 1.0 2652255.0
0.0 Seven_deadly_sins en 1.0 6104316.0
0.0 Special:BlankPage en 1.0 942340592.0
0.0 Special:UserLogin en 1.0 1047123130.0
0.0 Star_Wars en 1.0 136598327.0
0.0 Main_Page en 1.0 8533729872.0
0.0 Main_Page en 1.0 8533729872.0
0.0 Python_(programming_language) en 1.0 11678164.0
0.0 North_Korea en 1.0 118851507.0
0.0 Main_Page en 1.0 8533729872.0
0.0 Special:BlankPage en 1.0 942340592.0
0.0 Foxcatcher en 1.0 5612895.0
0.0 Main_Page en 1.0 8533729872.0
0.0 Special:UserLogin en 1.0 1047123130.0
0.0 Special:BlankPage en 1.0 942340592.0
0.0 Main_Page en 1.0 8533729872.0
0.0 Pathankot en 1.0 2812933.0
0.0 Main_Page en 1.0 8533729872.0
0.0 Dubai en 1.0 21108469.0
0.0 Special:BlankPage en 1.0 942340592.0
0.0 Main_Page en 1.0 8533729872.0
0.0 Mark_Hamill en 1.0 13818790.0
0.0 Special:UserLogin en 1.0 1047123130.0
0.0 Main_Page en 1.0 8533729872.0
0.0 Main_Page en 1.0 8533729872.0
0.0 Aryabhata en 1.0 5180306.0
0.0 Chichijima_incident en 1.0 156777745.0
0.0 Deaths_in_2016 en 1.0 53894002.0
0.0 Main_Page en 1.0 8533729872.0
0.0 The_Shannara_Chronicles en 1.0 24672996.0
0.0 Laos en 1.0 19430834.0
0.0 Main_Page en 1.0 8533729872.0
0.0 Special:BlankPage en 1.0 942340592.0
0.0 Main_Page en 1.0 8533729872.0
0.0 Main_Page en 1.0 8533729872.0
0.0 Game_of_Thrones_(season_5) en 1.0 6911369.0
0.0 File:Donald_August_19_(cropped).jpg en 1.0 16354475.0
0.0 Main_Page en 1.0 8533729872.0
0.0 Corrupted_Blood_incident en 1.0 20892406.0
0.0 Main_Page en 1.0 8533729872.0
0.0 Main_Page en 1.0 8533729872.0
0.0 Main_Page en 1.0 8533729872.0
0.0 Thermonuclear_weapon en 1.0 70269413.0
0.0 Main_Page en 1.0 8533729872.0
0.0 Special:UserLogin en 1.0 1047123130.0
0.0 Main_Page en 1.0 8533729872.0
0.0 Main_Page en 1.0 8533729872.0
0.0 Main_Page en 1.0 8533729872.0
0.0 The_Revenant_(2015_film) en 1.0 59359352.0
0.0 Special:BlankPage en 1.0 942340592.0
0.0 Main_Page en 1.0 8533729872.0
0.0 Special:UserLogin en 1.0 1047123130.0
0.0 Chichijima_incident en 1.0 156777745.0
0.0 Special:UserLogin en 1.0 1047123130.0
0.0 Mohamed_Hadid en 1.0 2104683.0
0.0 Main_Page en 1.0 8533729872.0
0.0 Main_Page en 1.0 8533729872.0
0.0 Main_Page en 1.0 8533729872.0
0.0 Mike_Tyson en 1.0 16062368.0
0.0 Portal:Contents en 1.0 9401880.0
0.0 Special:UserLogin en 1.0 1047123130.0
0.0 Main_Page en 1.0 8533729872.0
0.0 Special:Search en 1.0 108047570.0
0.0 Main_Page en 1.0 8533729872.0
0.0 Java_(programming_language) en 1.0 9701848.0
0.0 Supernatural_(season_11) en 1.0 3582752.0
0.0 Jordan_Belfort en 1.0 4235504.0
0.0 Theri_(film) en 1.0 1849447.0
0.0 Special:Search en 1.0 108047570.0
0.0 File:Evander_Holyfield_LA_2011.jpg en 1.0 175595651.0
0.0 Main_Page en 1.0 8533729872.0
0.0 Yarloop,_Western_Australia en 1.0 7485652.0
0.0 Main_Page en 1.0 8533729872.0
0.0 Main_Page en 1.0 8533729872.0
0.0 Main_Page en 1.0 8533729872.0
0.0 Main_Page en 1.0 8533729872.0
0.0 Captain_America:_Civil_War en 1.0 18071554.0
0.0 Special:RecentChanges en 1.0 21739539.0
0.0 LTE_(telecommunication) en 1.0 4494434.0
0.0 Singapore en 1.0 50501023.0
0.0 Main_Page en 1.0 8533729872.0
0.0 Main_Page en 1.0 8533729872.0
0.0 Main_Page en 1.0 8533729872.0
0.0 Asperger_syndrome en 1.0 11113371.0
0.0 Special:UserLogin en 1.0 1047123130.0
0.0 Aokigahara en 1.0 10308064.0
0.0 Reply_1988 en 1.0 1434188.0
0.0 Main_Page en 1.0 8533729872.0
0.0 Main_Page en 1.0 8533729872.0
0.0 Main_Page en 1.0 8533729872.0
0.0 Main_Page en 1.0 8533729872.0
0.0 Java_(programming_language) en 1.0 9701848.0
0.0 Main_Page en 1.0 8533729872.0
0.0 Main_Page en 1.0 8533729872.0
0.0 The_Hateful_Eight en 1.0 37973477.0
0.0 Main_Page en 1.0 8533729872.0
0.0 Special:Search en 1.0 108047570.0
0.0 Main_Page en 1.0 8533729872.0
0.0 Main_Page en 1.0 8533729872.0
0.0 Claire_Danes en 1.0 5672855.0
0.0 Main_Page en 1.0 8533729872.0
0.0 Main_Page en 1.0 8533729872.0
0.0 Java_(programming_language) en 1.0 9701848.0
0.0 Special:BlankPage en 1.0 942340592.0
0.0 Jericho_(2016_TV_series) en 1.0 4895146.0
0.0 Main_Page en 1.0 8533729872.0
0.0 Criminal_Minds_(season_11) en 1.0 2645565.0
0.0 Lebanon en 1.0 21052580.0
0.0 Web_scraping en 1.0 28358326.0
0.0 Main_Page en 1.0 8533729872.0
0.0 Special:BlankPage en 1.0 942340592.0
0.0 Chichijima_incident en 1.0 156777745.0
0.0 Main_Page en 1.0 8533729872.0
0.0 Star_Wars en 1.0 136598327.0
0.0 Hugh_Glass en 1.0 13929229.0
0.0 Seychelles en 1.0 10233209.0
0.0 Fan_death en 1.0 10355056.0
0.0 Chichijima_incident en 1.0 156777745.0
0.0 Population_of_Japan en 1.0 5804915.0
0.0 Scientology en 1.0 91501485.0
0.0 Main_Page en 1.0 8533729872.0
0.0 Main_Page en 1.0 8533729872.0
0.0 Main_Page en 1.0 8533729872.0
0.0 Main_Page en 1.0 8533729872.0
0.0 Special:BlankPage en 1.0 942340592.0
0.0 Main_Page en 1.0 8533729872.0
0.0 Main_Page en 1.0 8533729872.0
0.0 Main_Page en 1.0 8533729872.0
0.0 Portal:Current_events en 1.0 77636666.0
0.0 Special:BlankPage en 1.0 942340592.0
0.0 Sisters_(2015_film) en 1.0 2639472.0
0.0 Pablo_Picasso en 1.0 11976693.0
0.0 Prison_Break en 1.0 5401854.0
0.0 Steven_Universe en 1.0 16801185.0
0.0 Main_Page en 1.0 8533729872.0
0.0 Special:BlankPage en 1.0 942340592.0
0.0 Special:Search en 1.0 108047570.0
0.0 Kaley_Cuoco en 1.0 5534603.0
0.0 Chichijima_incident en 1.0 156777745.0
0.0 George_Clooney en 1.0 6746281.0
0.0 Main_Page en 1.0 8533729872.0
0.0 Special:BlankPage en 1.0 942340592.0
0.0 Special:BlankPage en 1.0 942340592.0
0.0 Main_Page en 1.0 8533729872.0
0.0 Bigg_Boss_9 en 1.0 4344672.0
0.0 Main_Page en 1.0 8533729872.0
0.0 Main_Page en 1.0 8533729872.0
0.0 Main_Page en 1.0 8533729872.0
0.0 Main_Page en 1.0 8533729872.0
0.0 Special:BlankPage en 1.0 942340592.0
0.0 Main_Page en 1.0 8533729872.0
0.0 Main_Page en 1.0 8533729872.0
0.0 Special:UserLogin en 1.0 1047123130.0
0.0 Special:BlankPage en 1.0 942340592.0
0.0 Billy_Joel en 1.0 11141635.0
0.0 Special:UserLogin en 1.0 1047123130.0
0.0 File:Evander_Holyfield_LA_2011.jpg en 1.0 175595651.0
0.0 2015_in_film en 1.0 110436486.0
0.0 Ernest_Hemingway en 1.0 10205587.0
0.0 Main_Page en 1.0 8533729872.0
0.0 Main_Page en 1.0 8533729872.0
0.0 File:Evander_Holyfield_LA_2011.jpg en 1.0 175595651.0
0.0 Demat_account en 1.0 174061131.0
0.0 Web_scraping en 1.0 28358326.0
0.0 Special:UserLogin en 1.0 1047123130.0
0.0 Special:BlankPage en 1.0 942340592.0
0.0 Diana,_Princess_of_Wales en 1.0 19517518.0
0.0 Paper_Mario en 1.0 4819958.0
0.0 Special:BlankPage en 1.0 942340592.0
0.0 Main_Page en 1.0 8533729872.0
0.0 Main_Page en 1.0 8533729872.0
0.0 Main_Page en 1.0 8533729872.0
0.0 Main_Page en 1.0 8533729872.0
0.0 73rd_Golden_Globe_Awards en 1.0 7194498.0
0.0 Main_Page en 1.0 8533729872.0
0.0 Main_Page en 1.0 8533729872.0
0.0 Zo%C3%AB_Bell en 1.0 2422533.0
0.0 Main_Page en 1.0 8533729872.0
0.0 Special:UserLogin en 1.0 1047123130.0
0.0 Special:BlankPage en 1.0 942340592.0
0.0 Main_Page en 1.0 8533729872.0
0.0 Main_Page en 1.0 8533729872.0
0.0 Main_Page en 1.0 8533729872.0
0.0 Main_Page en 1.0 8533729872.0
0.0 Mary,_Queen_of_Scots en 1.0 8255081.0
0.0 Straight_Outta_Compton_(film) en 1.0 9980199.0
0.0 Main_Page en 1.0 8533729872.0
0.0 Special:BlankPage en 1.0 942340592.0
0.0 List_of_Elementary_episodes en 1.0 17887705.0
0.0 Main_Page en 1.0 8533729872.0
0.0 Special:UserLogin en 1.0 1047123130.0
0.0 Demat_account en 1.0 174061131.0
0.0 Web_scraping en 1.0 28358326.0
0.0 Mission:_Impossible_%E2%80%93_Rogue_Nation en 1.0 7698308.0
0.0 American_Horror_Story:_Hotel en 1.0 31967284.0
0.0 Pierre_Boulez en 1.0 15629412.0
0.0 Deepika_Padukone en 1.0 16310597.0
0.0 Special:UserLogin en 1.0 1047123130.0
0.0 Main_Page en 1.0 8533729872.0
0.0 Special:UserLogin en 1.0 1047123130.0
0.0 Main_Page en 1.0 8533729872.0
0.0 Main_Page en 1.0 8533729872.0
0.0 Main_Page en 1.0 8533729872.0
0.0 Special:UserLogin en 1.0 1047123130.0
0.0 Main_Page en 1.0 8533729872.0
0.0 Main_Page en 1.0 8533729872.0
0.0 John_Krasinski en 1.0 8940412.0
0.0 Shades_of_Blue_(TV_series) en 1.0 10930701.0
0.0 File:Matthew_Morrison_Peabody_2010_(cropped).jpg en 1.0 8598616.0
0.0 Main_Page en 1.0 8533729872.0
0.0 Charles_Dickens en 1.0 14110616.0
0.0 Main_Page en 1.0 8533729872.0
0.0 Main_Page en 1.0 8533729872.0
0.0 Main_Page en 1.0 8533729872.0
0.0 Chichijima_incident en 1.0 156777745.0
0.0 Main_Page en 1.0 8533729872.0
0.0 Chichijima_incident en 1.0 156777745.0
0.0 Main_Page en 1.0 8533729872.0
0.0 Main_Page en 1.0 8533729872.0
0.0 Boku_Dake_ga_Inai_Machi en 1.0 9358161.0
0.0 Special:UserLogin en 1.0 1047123130.0
0.0 Special:UserLogin en 1.0 1047123130.0
0.0 Goa en 1.0 9128690.0
0.0 Main_Page en 1.0 8533729872.0
0.0 Kray_twins en 1.0 6391669.0
0.0 Alzheimer%27s_disease en 1.0 16489226.0
0.0 Demat_account en 1.0 174061131.0
0.0 Special:BlankPage en 1.0 942340592.0
0.0 Main_Page en 1.0 8533729872.0
0.0 Special:BlankPage en 1.0 942340592.0
0.0 Main_Page en 1.0 8533729872.0
0.0 Main_Page en 1.0 8533729872.0
0.0 Main_Page en 1.0 8533729872.0
0.0 Spartacus_(TV_series) en 1.0 5270386.0
0.0 Main_Page en 1.0 8533729872.0
0.0 Islamic_State_of_Iraq_and_the_Levant en 1.0 148719214.0
0.0 Main_Page en 1.0 8533729872.0
0.0 Main_Page en 1.0 8533729872.0
0.0 Kim_Il-sung en 1.0 6980817.0
0.0 Keshub_Chandra_Sen en 1.0 1544656.0
0.0 File:Evander_Holyfield_LA_2011.jpg en 1.0 175595651.0
0.0 Steve_Wozniak en 1.0 5447599.0
0.0 List_of_Downton_Abbey_episodes en 1.0 8404847.0
0.0 Main_Page en 1.0 8533729872.0
0.0 Special:BlankPage en 1.0 942340592.0
0.0 Main_Page en 1.0 8533729872.0
0.0 Special:UserLogin en 1.0 1047123130.0
0.0 Main_Page en 1.0 8533729872.0
0.0 Chichijima_incident en 1.0 156777745.0
0.0 Castle_(TV_series) en 1.0 6872701.0
0.0 Main_Page en 1.0 8533729872.0
0.0 Gmail en 1.0 22332773.0
0.0 Web_scraping en 1.0 28358326.0
0.0 Special:Search en 1.0 108047570.0
0.0 Main_Page en 1.0 8533729872.0
0.0 Smiley en 1.0 1231011.0
0.0 Main_Page en 1.0 8533729872.0
0.0 Deadpool_(film) en 1.0 10061985.0
0.0 Main_Page en 1.0 8533729872.0
0.0 Demat_account en 1.0 174061131.0
0.0 Alison_Lohman en 1.0 630495.0
0.0 Main_Page en 1.0 8533729872.0
0.0 Main_Page en 1.0 8533729872.0
0.0 Special:UserLogin en 1.0 1047123130.0
0.0 MIT_License en 1.0 3139215.0
0.0 Main_Page en 1.0 8533729872.0
0.0 Special:UserLogin en 1.0 1047123130.0
0.0 Special:UserLogin en 1.0 1047123130.0
0.0 Main_Page en 1.0 8533729872.0
0.0 VIT_University en 1.0 2928995.0
0.0 John_Boyega en 1.0 17504336.0
0.0 Main_Page en 1.0 8533729872.0
0.0 Rothschild_family en 1.0 7573604.0
0.0 Cephalopod en 1.0 103351379.0
0.0 Main_Page en 1.0 8533729872.0
0.0 Special:UserLogin en 1.0 1047123130.0
0.0 Main_Page en 1.0 8533729872.0
0.0 Main_Page en 1.0 8533729872.0
0.0 Main_Page en 1.0 8533729872.0
0.0 Special:BlankPage en 1.0 942340592.0
0.0 Web_scraping en 1.0 28358326.0
0.0 1989_(Taylor_Swift_album) en 1.0 9152950.0
0.0 Main_Page en 1.0 8533729872.0
0.0 Special:Search en 1.0 108047570.0
0.0 Web_scraping en 1.0 28358326.0
0.0 Main_Page en 1.0 8533729872.0
0.0 Special:BlankPage en 1.0 942340592.0
0.0 Main_Page en 1.0 8533729872.0
0.0 Main_Page en 1.0 8533729872.0
0.0 Main_Page en 1.0 8533729872.0
0.0 Main_Page en 1.0 8533729872.0
0.0 Main_Page en 1.0 8533729872.0
0.0 Windows_10_editions en 1.0 2078100.0
0.0 Main_Page en 1.0 8533729872.0
0.0 Main_Page en 1.0 8533729872.0
0.0 Colombia en 1.0 23191165.0
0.0 Main_Page en 1.0 8533729872.0
0.0 Chichijima_incident en 1.0 156777745.0
0.0 Main_Page en 1.0 8533729872.0
0.0 Margot_Robbie en 1.0 4561444.0
0.0 Barack_obama en 1.0 255717473.0
0.0 Costa_Rica en 1.0 10033824.0
0.0 Web_scraping en 1.0 28358326.0
0.0 Main_Page en 1.0 8533729872.0
0.0 Main_Page en 1.0 8533729872.0
0.0 Main_Page en 1.0 8533729872.0
0.0 Special:Search en 1.0 108047570.0
0.0 Special:UserLogin en 1.0 1047123130.0
0.0 Tomorrowland_(film) en 1.0 5098296.0
0.0 January_8 en 1.0 50914427.0
0.0 List_of_Naruto:_Shippuden_episodes en 1.0 24434944.0
0.0 Special:UserLogin en 1.0 1047123130.0
0.0 Eternity_II_puzzle en 1.0 41705811.0
0.0 Main_Page en 1.0 8533729872.0
0.0 Much_Ado_About_Nothing en 1.0 40783320.0
0.0 Main_Page en 1.0 8533729872.0
0.0 Pride_and_Prejudice en 1.0 5799191.0
0.0 How_I_Met_Your_Mother en 1.0 11150220.0
0.0 Main_Page en 1.0 8533729872.0
0.0 Sword_Art_Online en 1.0 5081328.0
0.0 Main_Page en 1.0 8533729872.0
0.0 Chichijima_incident en 1.0 156777745.0
0.0 Killing_Veerappan en 1.0 4213145.0
0.0 Main_Page en 1.0 8533729872.0
0.0 American_Sniper en 1.0 7380826.0
0.0 Donald_Trump en 1.0 115639487.0
0.0 Main_Page en 1.0 8533729872.0
0.0 File:Evander_Holyfield_LA_2011.jpg en 1.0 175595651.0
0.0 Main_Page en 1.0 8533729872.0
0.0 Samsung en 1.0 12188473.0
0.0 Main_Page en 1.0 8533729872.0
0.0 Main_Page en 1.0 8533729872.0
0.0 Air_pollution en 1.0 13226913.0
0.0 Angel_from_Hell en 1.0 7619050.0
0.0 Main_Page en 1.0 8533729872.0
0.0 List_of_Pretty_Little_Liars_episodes en 1.0 5838472.0
0.0 Main_Page en 1.0 8533729872.0
0.0 Pope_Francis en 1.0 42228482.0
0.0 Main_Page en 1.0 8533729872.0
0.0 Main_Page en 1.0 8533729872.0
0.0 Special:UserLogin en 1.0 1047123130.0
0.0 Main_Page en 1.0 8533729872.0
0.0 Special:Search en 1.0 108047570.0
0.0 Main_Page en 1.0 8533729872.0
0.0 Islamic_State_of_Iraq_and_the_Levant en 1.0 148719214.0
0.0 Main_Page en 1.0 8533729872.0
0.0 Chichijima_incident en 1.0 156777745.0
0.0 Special:BlankPage en 1.0 942340592.0
0.0 Main_Page en 1.0 8533729872.0
0.0 List_of_UFC_events en 1.0 49434449.0
0.0 Main_Page en 1.0 8533729872.0
0.0 Main_Page en 1.0 8533729872.0
0.0 Much_Ado_About_Nothing en 1.0 40783320.0
0.0 James_Franco en 1.0 12210030.0
0.0 Main_Page en 1.0 8533729872.0
0.0 Main_Page en 1.0 8533729872.0
0.0 Main_Page en 1.0 8533729872.0
0.0 Daddy%27s_Home_(film) en 1.0 4120676.0
0.0 Special:BlankPage en 1.0 942340592.0
0.0 Special:UserLogin en 1.0 1047123130.0
0.0 Main_Page en 1.0 8533729872.0
0.0 Null en 1.0 2761544.0
0.0 IKON_(South_Korean_band) en 1.0 3040827.0
0.0 Main_Page en 1.0 8533729872.0
0.0 List_of_NCIS_episodes en 1.0 10150721.0
0.0 Java_(programming_language) en 1.0 9701848.0
0.0 Main_Page en 1.0 8533729872.0
0.0 Main_Page en 1.0 8533729872.0
0.0 List_of_UFC_events en 1.0 49434449.0
0.0 Main_Page en 1.0 8533729872.0
0.0 Main_Page en 1.0 8533729872.0
0.0 Blackstar_(David_Bowie_album) en 1.0 16152081.0
0.0 Saartjie_Baartman en 1.0 8434714.0
0.0 Chichijima_incident en 1.0 156777745.0
0.0 Main_Page en 1.0 8533729872.0
0.0 Main_Page en 1.0 8533729872.0
0.0 Main_Page en 1.0 8533729872.0
0.0 Main_Page en 1.0 8533729872.0
0.0 Main_Page en 1.0 8533729872.0
0.0 Oscar_Isaac en 1.0 9405208.0
0.0 Microsoft_Excel en 1.0 4978511.0
0.0 Main_Page en 1.0 8533729872.0
0.0 Main_Page en 1.0 8533729872.0
0.0 Main_Page en 1.0 8533729872.0
0.0 Special:UserLogin en 1.0 1047123130.0
0.0 Main_Page en 1.0 8533729872.0
0.0 Gwendoline_Christie en 1.0 2114892.0
0.0 Main_Page en 1.0 8533729872.0
0.0 Special:Search en 1.0 108047570.0
0.0 Special:Search en 1.0 108047570.0
0.0 Main_Page en 1.0 8533729872.0
0.0 Special:BlankPage en 1.0 942340592.0
0.0 Return_of_the_Jedi en 1.0 13420510.0
0.0 Flush_toilet en 1.0 19101791.0
0.0 List_of_The_Flash_(2014_TV_series)_episodes en 1.0 18717375.0
0.0 Conor_McGregor en 1.0 18563582.0
0.0 Main_Page en 1.0 8533729872.0
0.0 Main_Page en 1.0 8533729872.0
0.0 Jodie_Sweetin en 1.0 3366480.0
0.0 Caitlyn_Jenner en 1.0 13700367.0
0.0 Special:BlankPage en 1.0 942340592.0
0.0 Java_(programming_language) en 1.0 9701848.0
0.0 Main_Page en 1.0 8533729872.0
0.0 Special:BlankPage en 1.0 942340592.0
0.0 Special:UserLogin en 1.0 1047123130.0
0.0 Special:BlankPage en 1.0 942340592.0
0.0 Star_Wars en 1.0 136598327.0
0.0 Main_Page en 1.0 8533729872.0
0.0 Main_Page en 1.0 8533729872.0
0.0 Main_Page en 1.0 8533729872.0
0.0 Main_Page en 1.0 8533729872.0
0.0 Main_Page en 1.0 8533729872.0
0.0 Ashoka en 1.0 15567144.0
0.0 Special:UserLogin en 1.0 1047123130.0
0.0 Main_Page en 1.0 8533729872.0
0.0 Main_Page en 1.0 8533729872.0
0.0 Main_Page en 1.0 8533729872.0
0.0 Main_Page en 1.0 8533729872.0
0.0 Main_Page en 1.0 8533729872.0
0.0 Main_Page en 1.0 8533729872.0
0.0 Special:Search en 1.0 108047570.0
0.0 Main_Page en 1.0 8533729872.0
0.0 Leonardo_DiCaprio_filmography en 1.0 3723762.0
0.0 Main_Page en 1.0 8533729872.0
0.0 Main_Page en 1.0 8533729872.0
0.0 Main_Page en 1.0 8533729872.0
0.0 Special:UserLogin en 1.0 1047123130.0
0.0 Main_Page en 1.0 8533729872.0
0.0 George_H._W._Bush_vomiting_incident en 1.0 14363364.0
0.0 Main_Page en 1.0 8533729872.0
0.0 The_Weeknd en 1.0 10189985.0
0.0 Jim_Bridger en 1.0 3471134.0
0.0 Special:UserLogin en 1.0 1047123130.0
0.0 One_Piece en 1.0 8607615.0
0.0 Main_Page en 1.0 8533729872.0
0.0 Special:Search en 1.0 108047570.0
0.0 Main_Page en 1.0 8533729872.0
0.0 File:Matthew_Morrison_Peabody_2010_(cropped).jpg en 1.0 8598616.0
0.0 Main_Page en 1.0 8533729872.0
0.0 Main_Page en 1.0 8533729872.0
0.0 Main_Page en 1.0 8533729872.0
0.0 Main_Page en 1.0 8533729872.0
0.0 Main_Page en 1.0 8533729872.0
0.0 Main_Page en 1.0 8533729872.0
0.0 File:Eternity_II_1.jpg en 1.0 1868566.0
0.0 John_Legend en 1.0 4978251.0
0.0 Special:UserLogin en 1.0 1047123130.0
0.0 Main_Page en 1.0 8533729872.0
0.0 ASCII en 1.0 5813085.0
0.0 Major_Lazer en 1.0 2101775.0
0.0 Keeping_Up_with_the_Kardashians en 1.0 5675530.0
0.0 Main_Page en 1.0 8533729872.0
0.0 List_of_countries_by_intentional_homicide_rate en 1.0 4642808.0
0.0 Main_Page en 1.0 8533729872.0
0.0 Special:UserLogin en 1.0 1047123130.0
0.0 Main_Page en 1.0 8533729872.0
0.0 Main_Page en 1.0 8533729872.0
0.0 Special:UserLogin en 1.0 1047123130.0
0.0 /en.wikiversity.org/wiki//en.m.wikipedia.org/w/index.php en 1.0 3712144.0
0.0 Main_Page en 1.0 8533729872.0
0.0 Special:Search en 1.0 108047570.0
0.0 Main_Page en 1.0 8533729872.0
0.0 Special:UserLogin en 1.0 1047123130.0
0.0 Main_Page en 1.0 8533729872.0
0.0 Main_Page en 1.0 8533729872.0
0.0 Chichijima_incident en 1.0 156777745.0
0.0 Main_Page en 1.0 8533729872.0
0.0 Steven_Avery en 1.0 25258095.0
0.0 List_of_ISO_639-1_codes en 1.0 2367831.0
0.0 Main_Page en 1.0 8533729872.0
0.0 Special:BlankPage en 1.0 942340592.0
0.0 Main_Page en 1.0 8533729872.0
0.0 Main_Page en 1.0 8533729872.0
0.0 Demat_account en 1.0 174061131.0
0.0 Main_Page en 1.0 8533729872.0
0.0 Main_Page en 1.0 8533729872.0
0.0 Special:BlankPage en 1.0 942340592.0
0.0 Special:UserLogin en 1.0 1047123130.0
0.0 Adam_Driver en 1.0 11421115.0
0.0 File:Chelsea_FC.svg en 1.0 4653436.0
0.0 Special:UserLogin en 1.0 1047123130.0
0.0 Main_Page en 1.0 8533729872.0
0.0 Netflix en 1.0 169502962.0
0.0 Main_Page en 1.0 8533729872.0
0.0 Moby-Dick en 1.0 8655656.0
0.0 The_Big_Bang_Theory en 1.0 42550433.0
0.0 Demat_account en 1.0 174061131.0
0.0 Special:BlankPage en 1.0 942340592.0
0.0 Gwen_Stefani en 1.0 6863573.0
0.0 Main_Page en 1.0 8533729872.0
0.0 Main_Page en 1.0 8533729872.0
0.0 Special:BlankPage en 1.0 942340592.0
0.0 Sandra_Bullock en 1.0 7510258.0
0.0 C%2B%2B en 1.0 5649379.0
0.0 Protein en 1.0 9687511.0
0.0 Main_Page en 1.0 8533729872.0
0.0 File:Michel_Platini_2010.jpg en 1.0 9570496.0
0.0 Main_Page en 1.0 8533729872.0
0.0 Main_Page en 1.0 8533729872.0
0.0 Main_Page en 1.0 8533729872.0
0.0 Clint_Eastwood en 1.0 21119779.0
0.0 Matt_Damon en 1.0 9264735.0
0.0 Main_Page en 1.0 8533729872.0
0.0 2016_in_film en 1.0 37397840.0
0.0 Main_Page en 1.0 8533729872.0
0.0 Fan_death en 1.0 10355056.0
0.0 Main_Page en 1.0 8533729872.0
0.0 Main_Page en 1.0 8533729872.0
0.0 Web_scraping en 1.0 28358326.0
0.0 Main_Page en 1.0 8533729872.0
0.0 Facebook en 1.0 118029963.0
0.0 Main_Page en 1.0 8533729872.0
0.0 Main_Page en 1.0 8533729872.0
0.0 Jenna_Dewan en 1.0 24310477.0
0.0 In_the_Heart_of_the_Sea_(film) en 1.0 4235490.0
0.0 Special:BlankPage en 1.0 942340592.0
0.0 2016_Brisbane_International_%E2%80%93_Women%27s_Singles en 1.0 2973366.0
0.0 Main_Page en 1.0 8533729872.0
0.0 Main_Page en 1.0 8533729872.0
0.0 Main_Page en 1.0 8533729872.0
0.0 John_Stamos en 1.0 3687906.0
0.0 Main_Page en 1.0 8533729872.0
0.0 2016_Pathankot_attack en 1.0 22086189.0
0.0 Main_Page en 1.0 8533729872.0
0.0 Main_Page en 1.0 8533729872.0
0.0 Main_Page en 1.0 8533729872.0
0.0 Main_Page en 1.0 8533729872.0
0.0 Main_Page en 1.0 8533729872.0
0.0 Main_Page en 1.0 8533729872.0
0.0 Chicago en 1.0 30621570.0
0.0 Main_Page en 1.0 8533729872.0
0.0 Main_Page en 1.0 8533729872.0
0.0 Main_Page en 1.0 8533729872.0
0.0 Jane_the_Virgin en 1.0 4212187.0
0.0 Chichijima_incident en 1.0 156777745.0
0.0 Main_Page en 1.0 8533729872.0
0.0 Main_Page en 1.0 8533729872.0
0.0 Special:UserLogin en 1.0 1047123130.0
0.0 Chichijima_incident en 1.0 156777745.0
0.0 Main_Page en 1.0 8533729872.0
0.0 LL_Cool_J en 1.0 4982058.0
0.0 Web_scraping en 1.0 28358326.0
0.0 Main_Page en 1.0 8533729872.0
0.0 Operation_Auca en 1.0 15045086.0
0.0 Charlie_(2015_Malayalam_film) en 1.0 3022697.0
0.0 Main_Page en 1.0 8533729872.0
0.0 Main_Page en 1.0 8533729872.0
0.0 Lottery_jackpot_records en 1.0 1386346.0
0.0 Main_Page en 1.0 8533729872.0
0.0 Main_Page en 1.0 8533729872.0
0.0 Main_Page en 1.0 8533729872.0
0.0 The_Big_Short_(film) en 1.0 17303600.0
0.0 Main_Page en 1.0 8533729872.0
0.0 Pirates_of_the_Caribbean:_Dead_Men_Tell_No_Tales en 1.0 4761328.0
0.0 Kristen_Wiig en 1.0 3948768.0
0.0 India en 1.0 125713628.0
0.0 Charlie_Kaufman en 1.0 3010242.0
0.0 Wazir_(film) en 1.0 28376882.0
0.0 Main_Page en 1.0 8533729872.0
0.0 Bennet_Omalu en 1.0 2316936.0
0.0 Main_Page en 1.0 8533729872.0
0.0 Special:BlankPage en 1.0 942340592.0
0.0 The_Shannara_Chronicles en 1.0 24672996.0
0.0 Main_Page en 1.0 8533729872.0
0.0 _ en 1.0 7237335.0
0.0 Main_Page en 1.0 8533729872.0
0.0 Main_Page en 1.0 8533729872.0
0.0 Main_Page en 1.0 8533729872.0
0.0 Main_Page en 1.0 8533729872.0
0.0 Snapchat en 1.0 8321007.0
0.0 Main_Page en 1.0 8533729872.0
0.0 Main_Page en 1.0 8533729872.0
0.0 Main_Page en 1.0 8533729872.0
0.0 Chichijima_incident en 1.0 156777745.0
0.0 Android_version_history en 1.0 22254710.0
0.0 Main_Page en 1.0 8533729872.0
0.0 Special:UserLogin en 1.0 1047123130.0
0.0 Main_Page en 1.0 8533729872.0
0.0 Dilwale_(2015_film) en 1.0 24935892.0
0.0 Main_Page en 1.0 8533729872.0
0.0 Main_Page en 1.0 8533729872.0
0.0 Main_Page en 1.0 8533729872.0
0.0 Paul_Walker en 1.0 6932209.0
0.0 Special:BlankPage en 1.0 942340592.0
0.0 Studio_Ghibli en 1.0 6908989.0
0.0 Main_Page en 1.0 8533729872.0
0.0 Chichijima_incident en 1.0 156777745.0
0.0 Eddie_Redmayne en 1.0 10673451.0
0.0 Internet_Movie_Database en 1.0 9980831.0
0.0 File:Evander_Holyfield_LA_2011.jpg en 1.0 175595651.0
0.0 File:Entrevistas_Diversas_(17302999185).jpg en 1.0 3313156.0
0.0 The_Expanse_(TV_series) en 1.0 7545052.0
0.0 Main_Page en 1.0 8533729872.0
0.0 Xeroderma_pigmentosum en 1.0 10414222.0
0.0 2016_North_Korean_nuclear_test en 1.0 27136680.0
0.0 Natalie_Dormer en 1.0 8374604.0
0.0 Main_Page en 1.0 8533729872.0
0.0 Volleyball en 1.0 5034788.0
0.0 Special:UserLogin en 1.0 1047123130.0
0.0 Special:BlankPage en 1.0 942340592.0
0.0 Main_Page en 1.0 8533729872.0
0.0 Main_Page en 1.0 8533729872.0
0.0 List_of_collective_nouns_in_English en 1.0 54558.0
0.0 Pierre-Emerick_Aubameyang en 1.0 17067974.0
0.0 Main_Page en 1.0 8533729872.0
0.0 Main_Page en 1.0 8533729872.0
0.0 Main_Page en 1.0 8533729872.0
0.0 File:Evander_Holyfield_LA_2011.jpg en 1.0 175595651.0
0.0 Cephalopod en 1.0 103351379.0
0.0 Jennifer_Lopez en 1.0 37878608.0
0.0 Main_Page en 1.0 8533729872.0
0.0 Special:Search en 1.0 108047570.0
0.0 Main_Page en 1.0 8533729872.0
0.0 Main_Page en 1.0 8533729872.0
0.0 Main_Page en 1.0 8533729872.0
0.0 Main_Page en 1.0 8533729872.0
0.0 Special:UserLogin en 1.0 1047123130.0
0.0 Saoirse_Ronan en 1.0 5906442.0
0.0 Special:UserLogin en 1.0 1047123130.0
0.0 Main_Page en 1.0 8533729872.0
0.0 Julianne_Hough en 1.0 4126815.0
0.0 New_Year%27s_Eve_sexual_assaults_in_Germany en 1.0 29613078.0
0.0 Main_Page en 1.0 8533729872.0
0.0 Main_Page en 1.0 8533729872.0
0.0 List_of_The_X-Files_episodes en 1.0 5970854.0
0.0 Assassin%27s_Creed_Syndicate en 1.0 3120614.0
0.0 Main_Page en 1.0 8533729872.0
0.0 Main_Page en 1.0 8533729872.0
0.0 Main_Page en 1.0 8533729872.0
0.0 Main_Page en 1.0 8533729872.0
0.0 Tim_Roth en 1.0 3310535.0
0.0 Main_Page en 1.0 8533729872.0
0.0 Main_Page en 1.0 8533729872.0
0.0 Main_Page en 1.0 8533729872.0
0.0 Main_Page en 1.0 8533729872.0
0.0 Google_Chrome en 1.0 47412082.0
0.0 Mary-Kate_Olsen en 1.0 3003807.0
0.0 Ontology en 1.0 5521275.0
0.0 File:Evander_Holyfield_LA_2011.jpg en 1.0 175595651.0
0.0 Main_Page en 1.0 8533729872.0
0.0 Main_Page en 1.0 8533729872.0
0.0 Premier_League en 1.0 11440236.0
0.0 File:Evander_Holyfield_LA_2011.jpg en 1.0 175595651.0
0.0 Main_Page en 1.0 8533729872.0
0.0 Main_Page en 1.0 8533729872.0
0.0 Whiddy_Island_Disaster en 1.0 8423122.0
0.0 List_of_countries_by_firearm-related_death_rate en 1.0 2733841.0
0.0 Main_Page en 1.0 8533729872.0
0.0 Main_Page en 1.0 8533729872.0
0.0 Bonin_Islands en 1.0 4415172.0
0.0 Special:UserLogin en 1.0 1047123130.0
0.0 Chichijima_incident en 1.0 156777745.0
0.0 Main_Page en 1.0 8533729872.0
0.0 List_of_wrongful_convictions_in_the_United_States en 1.0 13241499.0
0.0 Stanford_University en 1.0 423477444.0
0.0 Help:IPA_for_English en 1.0 11944409.0
0.0 Chichijima_incident en 1.0 156777745.0
0.0 Main_Page en 1.0 8533729872.0
0.0 Main_Page en 1.0 8533729872.0
0.0 Main_Page en 1.0 8533729872.0
0.0 Main_Page en 1.0 8533729872.0
0.0 Chris_Pratt en 1.0 4286552.0
0.0 Main_Page en 1.0 8533729872.0
0.0 List_of_The_Big_Bang_Theory_episodes en 1.0 46964178.0
0.0 The_X-Files en 1.0 17986609.0
0.0 Main_Page en 1.0 8533729872.0
0.0 Special:UserLogin en 1.0 1047123130.0
0.0 Main_Page en 1.0 8533729872.0
0.0 Special:UserLogin en 1.0 1047123130.0
0.0 File:Evander_Holyfield_LA_2011.jpg en 1.0 175595651.0
0.0 Main_Page en 1.0 8533729872.0
0.0 List_of_Running_Man_episodes en 1.0 73019342.0
0.0 File:Japaneese_War_Trials_A.pdf en 1.0 4524437.0
0.0 Main_Page en 1.0 8533729872.0
0.0 Main_Page en 1.0 8533729872.0
0.0 Special:HideBanners en 1.0 0.0
0.0 Kokoda_Track_campaign en 1.0 45527185.0
0.0 Main_Page en 1.0 8533729872.0
0.0 Special:Search en 1.0 108047570.0
0.0 Main_Page en 1.0 8533729872.0
0.0 Main_Page en 1.0 8533729872.0
0.0 Demat_account en 1.0 174061131.0
0.0 American_Horror_Story:_Hotel en 1.0 31967284.0
0.0 List_of_highest-grossing_films en 1.0 167724226.0
0.0 Special:UserLogin en 1.0 1047123130.0
0.0 Main_Page en 1.0 8533729872.0
0.0 Main_Page en 1.0 8533729872.0
0.0 Main_Page en 1.0 8533729872.0
0.0 Main_Page en 1.0 8533729872.0
0.0 Main_Page en 1.0 8533729872.0
0.0 Main_Page en 1.0 8533729872.0
0.0 Main_Page en 1.0 8533729872.0
0.0 Main_Page en 1.0 8533729872.0
0.0 2016_in_film en 1.0 37397840.0
0.0 Doctor_Strange_(film) en 1.0 7163621.0
0.0 Super_Bowl_50 en 1.0 4777645.0
0.0 One_Direction en 1.0 17926732.0
0.0 Main_Page en 1.0 8533729872.0
0.0 Main_Page en 1.0 8533729872.0
0.0 Main_Page en 1.0 8533729872.0
0.0 Main_Page en 1.0 8533729872.0
0.0 George_H._W._Bush en 1.0 221410448.0
0.0 Main_Page en 1.0 8533729872.0
0.0 Special:UserLogin en 1.0 1047123130.0
0.0 Main_Page en 1.0 8533729872.0
0.0 Main_Page en 1.0 8533729872.0
0.0 Main_Page en 1.0 8533729872.0
0.0 Special:Watchlist en 1.0 76035929.0
0.0 Special:UserLogin en 1.0 1047123130.0
0.0 Main_Page en 1.0 8533729872.0
0.0 Web_scraping en 1.0 28358326.0
0.0 Cephalopod en 1.0 103351379.0
0.0 Special:BlankPage en 1.0 942340592.0
0.0 Megan_Boone en 1.0 1408540.0
0.0 Main_Page en 1.0 8533729872.0
0.0 Main_Page en 1.0 8533729872.0
0.0 Main_Page en 1.0 8533729872.0
0.0 Special:UserLogin en 1.0 1047123130.0
0.0 Special:BlankPage en 1.0 942340592.0
0.0 Main_Page en 1.0 8533729872.0
0.0 The_Martian_(film) en 1.0 26081842.0
0.0 Special:UserLogin en 1.0 1047123130.0
0.0 Main_Page en 1.0 8533729872.0
0.0 Main_Page en 1.0 8533729872.0
0.0 Main_Page en 1.0 8533729872.0
0.0 Main_Page en 1.0 8533729872.0
0.0 File:Amitabh_Bachchan_December_2013.png en 1.0 1005589.0
0.0 Main_Page en 1.0 8533729872.0
0.0 Chichijima_incident en 1.0 156777745.0
0.0 Main_Page en 1.0 8533729872.0
0.0 Main_Page en 1.0 8533729872.0
0.0 Main_Page en 1.0 8533729872.0
0.0 Main_Page en 1.0 8533729872.0
0.0 Main_Page en 1.0 8533729872.0
0.0 LNER_Class_A3_4472_Flying_Scotsman en 1.0 6033125.0
0.0 Main_Page en 1.0 8533729872.0
0.0 Main_Page en 1.0 8533729872.0
0.0 Main_Page en 1.0 8533729872.0
0.0 Main_Page en 1.0 8533729872.0
0.0 Denuvo en 1.0 3846720.0
0.0 Main_Page en 1.0 8533729872.0
0.0 Main_Page en 1.0 8533729872.0
0.0 Special:BlankPage en 1.0 942340592.0
0.0 Main_Page en 1.0 8533729872.0
0.0 Corrupted_Blood_incident en 1.0 20892406.0
0.0 File:Vinny_Lecavalier_2007.jpg en 1.0 4611230.0
0.0 File:LEONARDO.JPG en 1.0 2098368.0
0.0 Special:BlankPage en 1.0 942340592.0
0.0 Main_Page en 1.0 8533729872.0
0.0 Salt_Mango_Tree en 1.0 1398505.0
0.0 Special:BlankPage en 1.0 942340592.0
0.0 Main_Page en 1.0 8533729872.0
0.0 Special:BlankPage en 1.0 942340592.0
0.0 Quentin_Tarantino en 1.0 39212819.0
0.0 Main_Page en 1.0 8533729872.0
0.0 Main_Page en 1.0 8533729872.0
0.0 Main_Page en 1.0 8533729872.0
0.0 Main_Page en 1.0 8533729872.0
0.0 Main_Page en 1.0 8533729872.0
0.0 Main_Page en 1.0 8533729872.0
0.0 Morocco en 1.0 23261800.0
0.0 Main_Page en 1.0 8533729872.0
0.0 Main_Page en 1.0 8533729872.0
0.0 Main_Page en 1.0 8533729872.0
0.0 Lightsaber en 1.0 1642850.0
0.0 Special:BlankPage en 1.0 942340592.0
0.0 Main_Page en 1.0 8533729872.0
0.0 Main_Page en 1.0 8533729872.0
0.0 Nanking_Massacre en 1.0 21060415.0
0.0 Main_Page en 1.0 8533729872.0
0.0 Main_Page en 1.0 8533729872.0
0.0 2016_North_Korean_nuclear_test en 1.0 27136680.0
0.0 File:Michel_Platini_2010.jpg en 1.0 9570496.0
0.0 Main_Page en 1.0 8533729872.0
0.0 Main_Page en 1.0 8533729872.0
0.0 Main_Page en 1.0 8533729872.0
0.0 Main_Page en 1.0 8533729872.0
0.0 Main_Page en 1.0 8533729872.0
0.0 Mia_Khalifa en 1.0 6421048.0
0.0 Main_Page en 1.0 8533729872.0
0.0 Main_Page en 1.0 8533729872.0
0.0 Wi-Fi en 1.0 8257941.0
0.0 Main_Page en 1.0 8533729872.0
0.0 Jennifer_Lawrence en 1.0 18843199.0
0.0 Main_Page en 1.0 8533729872.0
0.0 Special:HideBanners en 1.0 0.0
0.0 Main_Page en 1.0 8533729872.0
0.0 Finn_(Star_Wars) en 1.0 2379240.0
0.0 Main_Page en 1.0 8533729872.0
0.0 Main_Page en 1.0 8533729872.0
0.0 Main_Page en 1.0 8533729872.0
0.0 Main_Page en 1.0 8533729872.0
0.0 Special:UserLogin en 1.0 1047123130.0
0.0 Brunei en 1.0 12480781.0
0.0 Main_Page en 1.0 8533729872.0
0.0 Main_Page en 1.0 8533729872.0
0.0 Chichijima_incident en 1.0 156777745.0
0.0 Special:BlankPage en 1.0 942340592.0
0.0 Main_Page en 1.0 8533729872.0
0.0 Special:UserLogin en 1.0 1047123130.0
0.0 Main_Page en 1.0 8533729872.0
0.0 2016_in_video_gaming en 1.0 10794789.0
0.0 Main_Page en 1.0 8533729872.0
0.0 Main_Page en 1.0 8533729872.0
0.0 Main_Page en 1.0 8533729872.0
0.0 Chichijima_incident en 1.0 156777745.0
0.0 Main_Page en 1.0 8533729872.0
0.0 Main_Page en 1.0 8533729872.0
0.0 Main_Page en 1.0 8533729872.0
0.0 Main_Page en 1.0 8533729872.0
0.0 Special:UserLogin en 1.0 1047123130.0
0.0 Main_Page en 1.0 8533729872.0
0.0 Iraq en 1.0 21906793.0
0.0 2016_ATP_World_Tour en 1.0 12015930.0
0.0 Main_Page en 1.0 8533729872.0
0.0 File:Charlie_Hebdo_logo.svg en 1.0 12336839.0
0.0 Main_Page en 1.0 8533729872.0
0.0 Demat_account en 1.0 174061131.0
0.0 Demat_account en 1.0 174061131.0
0.0 Ri_Chun-hee en 1.0 1436893.0
0.0 Special:BlankPage en 1.0 942340592.0
0.0 Main_Page en 1.0 8533729872.0
0.0 Hypertext_Transfer_Protocol en 1.0 4530183.0
0.0 Main_Page en 1.0 8533729872.0
0.0 Main_Page en 1.0 8533729872.0
0.0 Main_Page en 1.0 8533729872.0
0.0 Main_Page en 1.0 8533729872.0
0.0 File:Evander_Holyfield_LA_2011.jpg en 1.0 175595651.0
0.0 Main_Page en 1.0 8533729872.0
0.0 Main_Page en 1.0 8533729872.0
0.0 File:Pat_Harrington,_Jr.,_Stump_the_stars_1962.JPG en 1.0 4027604.0
0.0 Pulkit_Samrat en 1.0 2853464.0
0.0 Main_Page en 1.0 8533729872.0
0.0 Main_Page en 1.0 8533729872.0
0.0 Main_Page en 1.0 8533729872.0
0.0 Main_Page en 1.0 8533729872.0
0.0 Main_Page en 1.0 8533729872.0
0.0 Main_Page en 1.0 8533729872.0
0.0 Main_Page en 1.0 8533729872.0
0.0 Special:BlankPage en 1.0 942340592.0
0.0 Main_Page en 1.0 8533729872.0
0.0 Kankan en 1.0 13459784.0
0.0 Main_Page en 1.0 8533729872.0
0.0 Adele en 1.0 55900581.0
0.0 Main_Page en 1.0 8533729872.0
0.0 Special:UserLogin en 1.0 1047123130.0
0.0 Java_(programming_language) en 1.0 9701848.0
0.0 Main_Page en 1.0 8533729872.0
0.0 Special:BlankPage en 1.0 942340592.0
0.0 Main_Page en 1.0 8533729872.0
0.0 Special:BlankPage en 1.0 942340592.0
0.0 Teen_Wolf_(2011_TV_series) en 1.0 9054306.0
0.0 Taylor_Kinney en 1.0 2361961.0
0.0 File:Presidente_Macri_en_el_Sillon_de_Rivadavia_(cropped).jpg en 1.0 1570560.0
0.0 Main_Page en 1.0 8533729872.0
0.0 File:TheVoiceTitleCard.png en 1.0 947942.0
0.0 Main_Page en 1.0 8533729872.0
0.0 Java_(programming_language) en 1.0 9701848.0
0.0 Joy_Mangano en 1.0 7558489.0
0.0 Main_Page en 1.0 8533729872.0
0.0 Main_Page en 1.0 8533729872.0
0.0 Special:UserLogin en 1.0 1047123130.0
0.0 Main_Page en 1.0 8533729872.0
0.0 Special:BlankPage en 1.0 942340592.0
0.0 Main_Page en 1.0 8533729872.0
0.0 Main_Page en 1.0 8533729872.0
0.0 Main_Page en 1.0 8533729872.0
0.0 Main_Page en 1.0 8533729872.0
0.0 Silicon_Valley_(TV_series) en 1.0 4856049.0
0.0 Special:UserLogin en 1.0 1047123130.0
0.0 Main_Page en 1.0 8533729872.0
0.0 Lionel_Messi en 1.0 95764036.0
0.0 Main_Page en 1.0 8533729872.0
0.0 Bluetooth en 1.0 7248181.0
0.0 Special:UserLogin en 1.0 1047123130.0
0.0 Floyd_Mayweather,_Jr. en 1.0 8982379.0
0.0 JSON en 1.0 3411487.0
0.0 Main_Page en 1.0 8533729872.0
0.0 Main_Page en 1.0 8533729872.0
0.0 Main_Page en 1.0 8533729872.0
0.0 Main_Page en 1.0 8533729872.0
0.0 Main_Page en 1.0 8533729872.0
0.0 Main_Page en 1.0 8533729872.0
0.0 Main_Page en 1.0 8533729872.0
0.0 Modern_Family en 1.0 12874979.0
0.0 Main_Page en 1.0 8533729872.0
0.0 European_Union en 1.0 30208012.0
0.0 XXX en 1.0 1127412.0
0.0 Tom_Cruise en 1.0 12201705.0
0.0 Courtney_Love en 1.0 10188760.0
0.0 File:Evander_Holyfield_LA_2011.jpg en 1.0 175595651.0
0.0 Main_Page en 1.0 8533729872.0
0.0 Elvis_Presley en 1.0 66604244.0
0.0 Main_Page en 1.0 8533729872.0
0.0 Main_Page en 1.0 8533729872.0
0.0 Special:BlankPage en 1.0 942340592.0
0.0 The_Sword_of_Shannara en 1.0 5566795.0
0.0 Main_Page en 1.0 8533729872.0
0.0 Comparison_of_feed_aggregators en 1.0 6667765.0
0.0 Main_Page en 1.0 8533729872.0
0.0 Chichijima_incident en 1.0 156777745.0
0.0 Lyndon_B._Johnson en 1.0 24745939.0
0.0 Inglourious_Basterds en 1.0 7595646.0
0.0 List_of_The_Blacklist_episodes en 1.0 14007009.0
0.0 Main_Page en 1.0 8533729872.0
0.0 Special:UserLogin en 1.0 1047123130.0
0.0 Special:UserLogin en 1.0 1047123130.0
0.0 Main_Page en 1.0 8533729872.0
0.0 Main_Page en 1.0 8533729872.0
0.0 Main_Page en 1.0 8533729872.0
0.0 Nicole_Kidman en 1.0 8448652.0
0.0 Main_Page en 1.0 8533729872.0
0.0 Main_Page en 1.0 8533729872.0
0.0 Main_Page en 1.0 8533729872.0
0.0 File:Golden_Globe_Trophy.jpg en 1.0 9956097.0
0.0 Transparent_(TV_series) en 1.0 2663162.0
0.0 UFC_197 en 1.0 4418593.0
0.0 Main_Page en 1.0 8533729872.0
0.0 Main_Page en 1.0 8533729872.0
0.0 Main_Page en 1.0 8533729872.0
0.0 Special:Search en 1.0 108047570.0
0.0 Main_Page en 1.0 8533729872.0
0.0 Special:UserLogin en 1.0 1047123130.0
0.0 Main_Page en 1.0 8533729872.0
0.0 Star_Wars:_The_Force_Awakens en 1.0 360319666.0
0.0 Luxembourg en 1.0 10826581.0
0.0 Main_Page en 1.0 8533729872.0
0.0 File:Crilogo.jpg en 1.0 5759262.0
0.0 Special:BlankPage en 1.0 942340592.0
0.0 Main_Page en 1.0 8533729872.0
0.0 Eternity_II_puzzle en 1.0 41705811.0
0.0 Main_Page en 1.0 8533729872.0
0.0 Special:BlankPage en 1.0 942340592.0
0.0 Main_Page en 1.0 8533729872.0
0.0 Michael_Jackson en 1.0 37617324.0
0.0 Main_Page en 1.0 8533729872.0
0.0 Main_Page en 1.0 8533729872.0
0.0 Main_Page en 1.0 8533729872.0
0.0 Much_Ado_About_Nothing en 1.0 40783320.0
0.0 Main_Page en 1.0 8533729872.0
0.0 File:Charlie_Hebdo_logo.svg en 1.0 12336839.0
0.0 Main_Page en 1.0 8533729872.0
0.0 File:Evander_Holyfield_LA_2011.jpg en 1.0 175595651.0
0.0 United_Nations_Security_Council en 1.0 10196262.0
0.0 Naruto en 1.0 14878660.0
0.0 Special:BlankPage en 1.0 942340592.0
0.0 The_Blacklist_(TV_series) en 1.0 15236835.0
0.0 Main_Page en 1.0 8533729872.0
0.0 Android_version_history en 1.0 22254710.0
0.0 Main_Page en 1.0 8533729872.0
0.0 Main_Page en 1.0 8533729872.0
0.0 Main_Page en 1.0 8533729872.0
0.0 Main_Page en 1.0 8533729872.0
0.0 Special:UserLogin en 1.0 1047123130.0
0.0 Main_Page en 1.0 8533729872.0
0.0 Main_Page en 1.0 8533729872.0
0.0 Matt_LeBlanc en 1.0 2250001.0
0.0 Main_Page en 1.0 8533729872.0
0.0 Special:UserLogin en 1.0 1047123130.0
0.0 Special:UserLogin en 1.0 1047123130.0
0.0 Taiwan en 1.0 37503758.0
0.0 Main_Page en 1.0 8533729872.0
0.0 Much_Ado_About_Nothing en 1.0 40783320.0
0.0 Demat_account en 1.0 174061131.0
0.0 Main_Page en 1.0 8533729872.0
0.0 Main_Page en 1.0 8533729872.0
0.0 George_Washington en 1.0 20471150.0
0.0 Chroma_subsampling en 1.0 8423509.0
0.0 Special:BlankPage en 1.0 942340592.0
0.0 Xeroderma_pigmentosum en 1.0 10414222.0
0.0 OSI_model en 1.0 7149755.0
0.0 Special:UserLogin en 1.0 1047123130.0
0.0 Special:BlankPage en 1.0 942340592.0
0.0 File:Aston_Villa.svg en 1.0 1289604.0
0.0 Main_Page en 1.0 8533729872.0
0.0 Main_Page en 1.0 8533729872.0
0.0 Main_Page en 1.0 8533729872.0
0.0 Main_Page en 1.0 8533729872.0
0.0 Main_Page en 1.0 8533729872.0
0.0 Main_Page en 1.0 8533729872.0
0.0 Main_Page en 1.0 8533729872.0
0.0 Mila_Kunis en 1.0 9979162.0
0.0 Special:UserLogin en 1.0 1047123130.0
0.0 Main_Page en 1.0 8533729872.0
0.0 Main_Page en 1.0 8533729872.0
0.0 Main_Page en 1.0 8533729872.0
0.0 Israel en 1.0 61844440.0
0.0 Main_Page en 1.0 8533729872.0
0.0 File:ChottaRajan.jpg en 1.0 1621704.0
0.0 Main_Page en 1.0 8533729872.0
0.0 Main_Page en 1.0 8533729872.0
0.0 Teen_Wolf_(season_5) en 1.0 7383168.0
0.0 Main_Page en 1.0 8533729872.0
0.0 Doctor_Who en 1.0 18315589.0
0.0 Special:BlankPage en 1.0 942340592.0
0.0 Main_Page en 1.0 8533729872.0
0.0 Main_Page en 1.0 8533729872.0
0.0 Main_Page en 1.0 8533729872.0
0.0 Main_Page en 1.0 8533729872.0
0.0 Main_Page en 1.0 8533729872.0
0.0 Korea en 1.0 9924714.0
0.0 NATO en 1.0 11120213.0
0.0 Main_Page en 1.0 8533729872.0
0.0 Main_Page en 1.0 8533729872.0
0.0 Main_Page en 1.0 8533729872.0
0.0 File:Death_angel_saunaopenair2010.jpg en 1.0 4335364.0
0.0 One-Punch_Man en 1.0 14955107.0
0.0 Ryan_Gosling en 1.0 9741759.0
0.0 Main_Page en 1.0 8533729872.0
0.0 Super_Bowl en 1.0 8790689.0
0.0 Main_Page en 1.0 8533729872.0
0.0 Java_(programming_language) en 1.0 9701848.0
0.0 Main_Page en 1.0 8533729872.0
0.0 Main_Page en 1.0 8533729872.0
0.0 Main_Page en 1.0 8533729872.0
0.0 Main_Page en 1.0 8533729872.0
0.0 The_Hateful_Eight en 1.0 37973477.0
0.0 Main_Page en 1.0 8533729872.0
0.0 Main_Page en 1.0 8533729872.0
0.0 Main_Page en 1.0 8533729872.0
0.0 Special:UserLogin en 1.0 1047123130.0
0.0 Main_Page en 1.0 8533729872.0
0.0 Star_Wars:_The_Force_Awakens en 1.0 360319666.0
0.0 Main_Page en 1.0 8533729872.0
0.0 Ddd en 1.0 56799834.0
0.0 Main_Page en 1.0 8533729872.0
0.0 Main_Page en 1.0 8533729872.0
0.0 Main_Page en 1.0 8533729872.0
0.0 Sian_Blake en 1.0 12936061.0
0.0 Fantastic_Four_(2015_film) en 1.0 5521558.0
0.0 Main_Page en 1.0 8533729872.0
0.0 Main_Page en 1.0 8533729872.0
0.0 List_of_Prime_Ministers_of_India en 1.0 1982365.0
0.0 Main_Page en 1.0 8533729872.0
0.0 Main_Page en 1.0 8533729872.0
0.0 DJ_Khaled en 1.0 8040276.0
0.0 .rss en 1.0 49554765.0
0.0 Chris_Kyle en 1.0 17818194.0
0.0 Justin_Timberlake en 1.0 11517129.0
0.0 Main_Page en 1.0 8533729872.0
0.0 Jawaharlal_Nehru en 1.0 11297124.0
0.0 Main_Page en 1.0 8533729872.0
0.0 Main_Page en 1.0 8533729872.0
0.0 File:Evander_Holyfield_LA_2011.jpg en 1.0 175595651.0
0.0 Main_Page en 1.0 8533729872.0
0.0 SQL en 1.0 7031924.0
0.0 Main_Page en 1.0 8533729872.0
0.0 Keerthy_Suresh en 1.0 1827979.0
0.0 Whitey_Bulger en 1.0 6215456.0
0.0 Main_Page en 1.0 8533729872.0
0.0 Main_Page en 1.0 8533729872.0
0.0 Special:BlankPage en 1.0 942340592.0
0.0 Main_Page en 1.0 8533729872.0
0.0 Main_Page en 1.0 8533729872.0
0.0 Wikipedia:Text_of_Creative_Commons_Attribution-ShareAlike_3.0_Unported_License en 1.0 7889719.0
0.0 Main_Page en 1.0 8533729872.0
0.0 Special:BlankPage en 1.0 942340592.0
0.0 Mastizaade en 1.0 2957951.0
0.0 Special:UserLogin en 1.0 1047123130.0
0.0 Main_Page en 1.0 8533729872.0
0.0 2016_Shenzhen_Open_%E2%80%93_Singles en 1.0 3715028.0
0.0 Main_Page en 1.0 8533729872.0
0.0 Special:BlankPage en 1.0 942340592.0
0.0 North_American_F-82_Twin_Mustang en 1.0 17279110.0
0.0 The_Danish_Girl_(film) en 1.0 11623257.0
0.0 Main_Page en 1.0 8533729872.0
0.0 Main_Page en 1.0 8533729872.0
0.0 Special:UserLogin en 1.0 1047123130.0
0.0 Special:UserLogin en 1.0 1047123130.0
0.0 Anime en 1.0 7079982.0
0.0 Main_Page en 1.0 8533729872.0
0.0 Jenna_Dewan en 1.0 24310477.0
0.0 Lady_Gaga en 1.0 21081035.0
0.0 Netherlands en 1.0 35450976.0
0.0 Main_Page en 1.0 8533729872.0
0.0 Main_Page en 1.0 8533729872.0
0.0 Star_Wars:_The_Force_Awakens en 1.0 360319666.0
0.0 Eternity_II_puzzle en 1.0 41705811.0
0.0 Main_Page en 1.0 8533729872.0
0.0 Main_Page en 1.0 8533729872.0
0.0 Mario_G%C3%B6tze en 1.0 4782700.0
0.0 Main_Page en 1.0 8533729872.0
0.0 Main_Page en 1.0 8533729872.0
0.0 Main_Page en 1.0 8533729872.0
0.0 Main_Page en 1.0 8533729872.0
0.0 Main_Page en 1.0 8533729872.0
0.0 Ireland en 1.0 21954207.0
0.0 Sunny_Leone en 1.0 19569968.0
0.0 Game_of_Thrones_(season_6) en 1.0 7103674.0
0.0 Main_Page en 1.0 8533729872.0
0.0 Main_Page en 1.0 8533729872.0
0.0 Main_Page en 1.0 8533729872.0
0.0 Main_Page en 1.0 8533729872.0
0.0 Java_(programming_language) en 1.0 9701848.0
0.0 Main_Page en 1.0 8533729872.0
0.0 Main_Page en 1.0 8533729872.0
0.0 Main_Page en 1.0 8533729872.0
0.0 Main_Page en 1.0 8533729872.0
0.0 Star_Wars:_The_Force_Awakens en 1.0 360319666.0
0.0 File:Wall_Street_Journal_28April2008.jpg en 1.0 3691800.0
0.0 .rss en 1.0 49554765.0
0.0 Chichijima_incident en 1.0 156777745.0
0.0 Main_Page en 1.0 8533729872.0
0.0 Spammer en 1.0 18026975.0
0.0 Metallica en 1.0 10369621.0
0.0 Java_(programming_language) en 1.0 9701848.0
0.0 Chichijima_incident en 1.0 156777745.0
0.0 Main_Page en 1.0 8533729872.0
0.0 Special:UserLogin en 1.0 1047123130.0
0.0 Park_Ji-sung en 1.0 5335121.0
0.0 Main_Page en 1.0 8533729872.0
0.0 Special:BlankPage en 1.0 942340592.0
0.0 Bikini en 1.0 177244701.0
0.0 File:Vinny_Lecavalier_2007.jpg en 1.0 4611230.0
0.0 Albert_Einstein en 1.0 50747527.0
0.0 Special:BlankPage en 1.0 942340592.0
0.0 Lili_Elbe en 1.0 5703639.0
0.0 Main_Page en 1.0 8533729872.0
0.0 Main_Page en 1.0 8533729872.0
0.0 Daredevil_(TV_series) en 1.0 15351261.0
0.0 Main_Page en 1.0 8533729872.0
0.0 Main_Page en 1.0 8533729872.0
0.0 Main_Page en 1.0 8533729872.0
0.0 William_Shakespeare en 1.0 45596284.0
0.0 Philadelphia en 1.0 15852659.0
0.0 Genghis_Khan en 1.0 10227972.0
0.0 Main_Page en 1.0 8533729872.0
0.0 Main_Page en 1.0 8533729872.0
0.0 Eternity_II_puzzle en 1.0 41705811.0
0.0 Lisa_Brennan-Jobs en 1.0 2070859.0
0.0 Main_Page en 1.0 8533729872.0
0.0 Main_Page en 1.0 8533729872.0
0.0 Main_Page en 1.0 8533729872.0
0.0 Main_Page en 1.0 8533729872.0
0.0 Main_Page en 1.0 8533729872.0
0.0 Main_Page en 1.0 8533729872.0
0.0 Special:BlankPage en 1.0 942340592.0
0.0 Main_Page en 1.0 8533729872.0
0.0 Cheese_in_the_Trap_(TV_series) en 1.0 1147628.0
0.0 Special:UserLogin en 1.0 1047123130.0
